NAME: vartrap10
TYPE: TSP
COMMENT: Synthetic explicit-edge TSP with varied edge costs and a greedy NN trap
DIMENSION: 11
EDGE_WEIGHT_TYPE: EXPLICIT
EDGE_WEIGHT_FORMAT: FULL_MATRIX
EDGE_WEIGHT_SECTION
0 1 9 47 46 53 21 24 32 50 99
1 0 1 54 51 23 33 46 50 35 7
9 1 0 1 37 53 51 38 22 51 29
47 54 1 0 4 39 30 26 29 43 46
46 51 37 4 0 1 45 41 27 29 20
53 23 53 39 1 0 4 43 42 48 25
21 33 51 30 45 4 0 3 31 47 51
24 46 38 26 41 43 3 0 2 25 21
32 50 22 29 27 42 31 2 0 3 47
50 35 51 43 29 48 47 25 3 0 8
99 7 29 46 20 25 51 21 47 8 0
EOF