NAME: vartrap05
TYPE: TSP
COMMENT: Synthetic explicit-edge TSP with varied edge costs and a greedy NN trap
DIMENSION: 11
EDGE_WEIGHT_TYPE: EXPLICIT
EDGE_WEIGHT_FORMAT: FULL_MATRIX
EDGE_WEIGHT_SECTION
0 1 6 32 43 39 18 26 19 28 77
1 0 1 25 22 39 41 21 30 55 5
6 1 0 4 38 28 37 44 20 47 46
32 25 4 0 1 33 34 29 54 20 24
43 22 38 1 0 2 25 28 34 53 44
39 39 28 33 2 0 4 22 40 52 30
18 41 37 34 25 4 0 2 20 47 53
26 21 44 29 28 22 2 0 2 26 32
19 30 20 54 34 40 20 2 0 4 29
28 55 47 20 53 52 47 26 4 0 5
77 5 46 24 44 30 53 32 29 5 0
EOF