NAME: graph-022
TYPE: TSP
COMMENT: Synthetic varied-weight explicit TSP with a nearest-neighbor greedy trap
DIMENSION: 75
EDGE_WEIGHT_TYPE: EXPLICIT
EDGE_WEIGHT_FORMAT: LOWER_DIAG_ROW
EDGE_WEIGHT_SECTION
0 1 0 7 1 0 50 66 5 0 66 96 65 2 0 39 93 72 90 1
0 96 95 46 89 18 1 0 54 85 25 71 62 26 1 0 74 93 51 39
92 86 82 3 0 40 42 76 22 39 76 56 94 3 0 62 30 46 81 88
98 47 47 24 4 0 33 97 60 88 58 69 67 33 24 79 2 0 83 26
55 36 49 59 52 41 15 72 35 4 0 30 81 82 27 26 67 95 86 79
64 48 55 3 0 94 16 95 84 47 48 23 49 69 99 74 23 58 3 0
73 32 29 83 28 37 48 62 24 61 44 18 93 100 5 0 98 96 79 50
41 61 53 69 27 68 65 88 87 16 74 4 0 28 96 52 49 67 86 70
93 21 67 39 96 87 92 92 15 2 0 33 96 38 33 22 65 52 38 54
88 50 45 18 61 98 60 37 3 0 85 53 24 63 76 22 93 18 26 92
99 77 40 71 55 30 61 24 4 0 82 78 58 94 64 81 18 21 56 100
74 34 43 93 44 70 62 100 56 5 0 79 89 100 33 85 97 62 16 42
78 58 72 26 59 54 45 82 19 15 63 2 0 52 84 40 24 30 71 16
35 94 95 88 75 82 64 56 62 31 23 93 42 70 5 0 79 74 67 20
100 28 54 80 35 88 49 57 84 72 78 21 32 43 92 31 17 74 1 0
33 16 70 75 22 63 40 88 83 35 86 15 32 81 99 96 92 72 28 52
91 58 45 2 0 43 41 72 32 65 83 28 84 26 67 47 92 54 17 79
88 81 15 19 55 36 18 27 96 1 0 21 64 96 92 40 89 26 38 17
92 33 15 90 85 41 48 34 75 16 82 72 62 17 54 84 3 0 73 85
49 49 96 73 56 24 53 44 67 59 62 56 50 73 77 40 75 60 24 44
23 78 84 50 4 0 66 22 76 33 15 18 80 91 68 45 73 22 73 44
21 94 67 79 45 37 36 66 91 64 29 74 87 3 0 78 99 83 50 92
85 53 57 88 41 96 46 93 44 24 98 40 19 92 60 24 31 100 83 94
38 91 94 1 0 67 87 17 71 53 77 45 34 95 41 94 51 18 36 89
33 46 44 82 84 32 64 86 47 30 93 17 25 94 1 0 99 38 29 91
37 20 60 40 20 59 68 55 82 64 64 59 67 44 41 75 19 52 24 52
56 17 18 65 88 41 3 0 55 51 26 81 98 52 44 99 29 63 78 96
21 61 51 24 48 66 33 97 94 39 78 27 17 64 17 18 75 72 29 3
0 74 34 99 92 63 91 93 94 61 49 75 43 59 61 84 40 29 44 55
79 18 56 51 30 84 92 93 32 89 70 36 87 4 0 58 16 92 56 47
63 39 34 100 40 30 43 91 55 48 77 58 32 17 61 21 66 39 49 80
26 84 76 21 73 70 30 31 1 0 40 95 21 29 84 78 18 58 83 72
59 44 67 100 66 65 42 74 50 59 54 78 69 89 97 73 80 18 69 78
59 66 79 80 1 0 47 87 41 27 53 91 30 97 78 82 55 46 57 42
43 46 90 92 50 69 89 58 30 24 97 17 22 86 15 16 27 94 31 39
29 2 0 15 76 91 43 84 55 94 96 98 40 17 48 20 54 40 15 67
93 98 17 20 93 58 76 43 58 24 27 43 57 39 56 87 33 32 56 3
0 75 84 95 94 81 84 63 27 88 61 97 99 91 42 73 28 73 16 83
23 37 18 79 39 30 37 31 49 49 42 100 22 39 38 47 57 95 1 0
78 90 57 49 28 57 27 66 98 26 88 79 44 43 49 89 15 40 23 28
15 68 77 86 62 39 20 38 20 98 23 28 31 21 73 25 58 76 4 0
72 68 43 96 91 61 63 53 17 40 80 98 71 43 54 72 56 84 93 21
35 38 65 28 26 21 39 37 34 92 48 36 38 39 84 44 33 58 61 5
0 19 18 67 51 91 31 38 46 27 38 32 27 23 43 23 22 71 38 55
85 37 50 27 98 35 30 56 69 95 30 39 52 53 17 56 36 42 77 45
56 3 0 93 50 18 41 61 58 47 96 92 17 17 58 83 89 36 34 96
69 22 41 34 76 71 86 45 72 88 24 72 55 72 57 40 37 74 79 49
87 47 82 72 3 0 44 39 39 92 25 41 28 26 67 71 26 81 69 70
99 18 19 58 74 54 85 42 64 20 62 78 33 77 38 29 90 20 60 39
24 84 56 85 27 45 56 83 4 0 59 77 67 60 55 87 20 59 31 81
90 84 73 92 65 80 21 42 69 23 43 22 18 77 15 54 75 54 97 36
93 67 38 94 44 83 63 52 70 61 53 69 33 3 0 52 48 85 45 46
70 61 22 57 16 52 83 50 90 98 90 68 26 21 44 69 56 58 34 82
64 58 39 36 53 53 81 58 84 50 46 45 78 72 46 73 32 86 100 4
0 55 32 18 33 22 51 72 63 55 52 77 30 44 90 88 97 54 30 22
46 64 58 46 17 37 20 79 87 90 28 17 81 80 30 77 48 64 63 70
46 15 46 52 74 71 1 0 23 83 74 78 96 82 15 76 91 51 55 74
29 51 75 50 21 44 34 22 24 76 76 22 23 15 52 43 98 70 76 29
87 81 23 75 42 16 55 97 47 37 88 24 60 65 1 0 16 71 96 68
62 26 40 95 95 56 87 35 30 69 18 24 70 84 41 100 79 45 82 94
56 90 35 40 43 53 62 98 54 48 45 35 23 57 58 73 74 83 99 42
68 76 66 2 0 57 82 61 19 33 83 85 47 26 72 53 81 26 73 71
60 29 49 93 60 74 61 28 31 64 48 65 46 22 100 54 17 60 35 88
88 65 51 33 40 44 67 38 66 61 41 86 91 1 0 46 49 35 65 66
99 79 69 21 89 29 98 47 30 31 35 20 29 54 93 87 100 29 95 84
37 52 39 55 84 55 59 73 24 26 46 58 18 48 23 83 58 36 57 81
76 84 29 41 5 0 33 99 64 82 80 62 89 17 21 82 83 28 100 37
53 55 33 44 74 55 26 19 49 93 97 58 91 84 47 94 35 57 33 63
87 23 49 16 28 94 48 83 87 80 97 28 74 93 21 16 1 0 77 48
42 78 83 93 29 58 94 57 98 54 88 41 39 47 16 39 84 70 93 77
62 73 16 73 32 22 54 95 61 17 65 20 69 22 46 48 40 56 86 20
100 88 96 58 85 86 61 42 94 3 0 55 48 30 67 21 76 98 24 33
69 78 17 65 61 80 48 72 65 65 27 59 38 48 43 89 49 82 15 47
66 65 56 36 80 65 54 31 93 58 65 76 55 100 93 79 65 68 52 29
29 76 73 4 0 18 60 99 45 97 40 32 85 76 50 36 59 46 100 30
44 31 96 41 45 59 37 47 77 39 48 69 58 63 68 32 47 78 52 25
64 18 72 68 53 90 19 29 70 73 61 73 68 48 73 15 80 75 1 0
55 70 26 87 47 62 71 96 41 95 37 32 85 55 42 58 67 87 73 90
33 22 46 76 45 38 81 83 97 79 18 54 78 49 20 70 86 53 58 23
35 23 64 26 15 56 37 25 40 69 65 98 51 37 2 0 26 24 32 77
50 22 31 61 44 48 28 91 24 16 99 51 23 90 30 54 95 18 41 29
63 94 69 97 83 40 39 25 24 25 80 97 67 46 35 30 41 53 66 44
88 64 90 43 55 75 43 87 20 88 38 3 0 50 96 51 35 28 69 20
47 73 46 74 47 45 95 29 89 40 40 53 87 20 47 19 70 37 54 30
68 90 30 81 80 89 34 74 44 30 44 59 64 61 42 31 58 58 41 95
60 92 16 50 19 96 18 19 18 4 0 40 23 16 21 93 54 58 90 24
25 49 52 64 50 42 52 85 95 52 86 38 87 60 81 69 61 83 84 59
71 58 81 73 68 59 34 39 75 67 100 100 98 26 20 28 97 87 65 37
48 15 87 52 42 47 16 70 5 0 32 62 55 65 84 72 50 99 43 74
17 57 94 50 75 84 66 86 29 17 79 52 92 98 69 77 70 80 40 62
58 57 35 18 63 32 56 97 25 55 57 92 99 42 75 31 46 85 18 71
92 30 90 47 30 59 71 79 3 0 73 38 18 58 53 49 99 71 83 90
84 98 54 15 30 24 88 44 89 84 77 30 16 51 95 19 59 76 75 81
25 21 29 39 31 69 48 52 67 28 27 46 61 90 50 55 56 26 56 61
64 33 62 21 17 15 82 97 17 2 0 42 93 99 54 31 47 97 77 61
58 79 52 62 23 17 40 54 88 41 76 22 95 28 27 23 68 66 50 83
92 70 94 83 18 37 73 79 29 62 15 31 86 29 36 34 71 19 96 60
68 28 80 29 17 32 45 81 19 73 84 3 0 43 73 22 41 24 77 88
89 48 82 43 82 72 17 87 96 68 68 77 34 88 24 74 92 72 86 71
23 94 73 69 37 36 67 89 43 53 52 51 85 28 33 54 31 90 31 90
78 86 56 64 83 93 84 77 60 61 91 93 52 45 4 0 77 16 21 60
44 35 68 63 86 21 67 99 88 81 73 43 87 92 65 86 26 85 40 48
61 58 33 80 29 60 90 90 43 22 61 48 84 28 17 86 91 65 58 38
91 81 61 91 41 38 41 90 31 17 78 48 92 39 23 48 27 66 1 0
24 84 18 71 49 17 88 44 92 62 58 57 52 87 25 71 76 50 72 90
71 54 49 51 71 97 39 74 93 50 73 32 67 69 71 65 60 38 90 63
43 48 59 39 80 87 72 71 88 32 41 34 42 79 33 100 64 95 38 91
55 93 62 2 0 82 93 43 82 20 100 59 90 100 22 96 35 21 92 47
39 52 16 51 25 80 77 15 42 43 80 36 97 40 19 93 74 16 80 40
36 51 52 63 65 84 65 87 78 47 78 27 40 85 22 48 84 49 81 33
23 42 53 79 23 97 19 56 65 1 0 74 66 35 16 37 34 43 26 85
48 43 85 23 53 45 69 59 45 65 37 18 36 28 19 95 60 95 43 85
63 27 42 41 54 45 93 27 97 88 96 65 66 37 20 22 49 87 52 39
31 51 96 94 23 85 77 97 54 79 57 93 82 32 59 87 1 0 22 18
57 75 40 47 66 44 78 95 44 60 28 51 31 70 36 67 37 30 82 15
39 89 23 17 62 65 57 37 18 27 54 68 34 76 57 95 84 53 63 21
38 24 36 61 46 50 48 23 80 88 57 40 78 35 70 57 34 17 39 51
28 92 24 41 2 0 38 82 62 35 72 77 52 66 19 71 81 61 39 80
48 25 68 35 40 53 27 37 20 36 25 66 93 94 89 37 74 90 55 61
63 28 54 69 25 93 81 67 51 60 22 95 44 65 18 46 76 36 66 98
91 75 38 69 47 66 90 93 26 55 46 99 43 5 0 80 16 15 85 94
42 53 30 32 22 43 93 48 70 95 29 97 49 28 37 27 23 19 36 91
26 70 76 21 52 97 32 61 71 74 39 84 75 67 77 88 36 65 59 57
62 76 73 97 66 30 22 65 87 81 85 57 97 91 30 59 48 61 63 86
98 51 25 5 0 51 58 54 33 78 52 95 52 72 87 27 46 86 89 74
21 78 88 70 50 58 33 54 91 55 24 92 17 100 39 16 55 77 57 99
81 23 45 47 61 60 59 84 81 75 87 36 54 30 75 26 64 39 84 43
68 97 70 32 37 86 16 81 27 47 40 71 17 90 2 0 92 42 80 42
33 41 47 39 56 40 54 33 28 56 61 84 17 39 49 91 49 55 75 43
67 49 54 97 79 65 74 65 96 95 38 86 59 83 32 30 59 60 58 46
100 90 90 25 46 15 27 39 50 99 69 77 68 95 66 82 90 15 78 87
99 91 49 66 24 20 4 0 85 71 33 66 97 29 66 50 20 30 76 65
94 86 93 52 71 92 70 76 48 79 43 28 40 39 67 82 41 38 19 43
76 88 30 61 46 47 80 57 41 81 32 65 84 81 98 54 65 68 52 55
26 54 42 36 78 56 58 63 21 63 42 97 56 90 68 30 37 89 93 2
0 36 31 40 96 95 59 70 94 47 33 22 57 51 56 85 98 55 23 43
85 74 47 70 47 76 19 77 76 60 72 72 100 25 35 87 25 84 44 45
92 61 33 77 81 41 35 82 24 79 50 69 17 68 46 88 59 64 32 28
39 79 89 100 52 88 88 30 52 65 24 30 16 3 0 1882 10 89 85 48
17 72 67 31 21 48 59 15 92 70 29 76 60 27 45 68 92 58 49 87
37 27 75 85 70 94 58 46 98 17 70 70 37 50 69 36 66 63 84 98
57 59 62 60 61 19 54 51 39 58 68 38 47 61 79 39 44 15 38 42
74 77 16 71 76 52 64 89 4 0
EOF