NAME: trap15
TYPE: TSP
COMMENT: Synthetic explicit-edge TSP designed as a nearest-neighbor greedy trap
DIMENSION: 15
EDGE_WEIGHT_TYPE: EXPLICIT
EDGE_WEIGHT_FORMAT: FULL_MATRIX
EDGE_WEIGHT_SECTION
0 1 6 60 60 60 60 60 60 60 60 60 60 60 250
1 0 1 60 60 60 60 60 60 60 60 60 60 60 6
6 1 0 1 60 60 60 60 60 60 60 60 60 60 60
60 60 1 0 1 60 60 60 60 60 60 60 60 60 60
60 60 60 1 0 1 60 60 60 60 60 60 60 60 60
60 60 60 60 1 0 1 60 60 60 60 60 60 60 60
60 60 60 60 60 1 0 1 60 60 60 60 60 60 60
60 60 60 60 60 60 1 0 1 60 60 60 60 60 60
60 60 60 60 60 60 60 1 0 1 60 60 60 60 60
60 60 60 60 60 60 60 60 1 0 1 60 60 60 60
60 60 60 60 60 60 60 60 60 1 0 1 60 60 60
60 60 60 60 60 60 60 60 60 60 1 0 1 60 60
60 60 60 60 60 60 60 60 60 60 60 1 0 1 60
60 60 60 60 60 60 60 60 60 60 60 60 1 0 6
250 6 60 60 60 60 60 60 60 60 60 60 60 6 0
EOF