NAME: graph-025
TYPE: TSP
COMMENT: Synthetic varied-weight explicit TSP with a nearest-neighbor greedy trap
DIMENSION: 100
EDGE_WEIGHT_TYPE: EXPLICIT
EDGE_WEIGHT_FORMAT: LOWER_DIAG_ROW
EDGE_WEIGHT_SECTION
0 1 0 10 5 0 94 76 2 0 77 67 24 5 0 84 54 100 84 4
0 73 81 48 89 96 2 0 39 33 85 75 72 32 1 0 52 29 83 22
60 54 18 1 0 45 85 84 56 28 87 53 56 1 0 30 19 51 89 89
86 37 86 90 5 0 74 83 41 15 47 15 72 75 42 62 1 0 21 36
28 54 72 30 92 38 47 22 29 2 0 85 25 92 48 32 100 46 77 72
48 49 35 2 0 25 58 61 92 97 69 89 85 74 22 22 22 25 4 0
51 29 40 77 96 93 75 40 29 20 97 95 40 87 4 0 69 38 89 48
90 17 64 62 88 39 18 85 71 97 96 4 0 82 71 87 64 84 51 54
94 100 29 15 58 70 73 43 48 3 0 76 92 50 72 32 38 89 92 68
54 60 21 87 50 69 77 23 1 0 22 65 94 85 38 49 45 88 77 62
92 33 54 90 30 77 27 67 5 0 63 36 52 40 36 60 53 24 49 92
34 95 42 45 36 25 21 90 72 1 0 94 89 79 79 58 44 78 50 34
75 32 31 98 59 19 20 62 83 66 52 3 0 71 47 54 71 80 69 42
36 97 77 82 55 50 48 16 26 80 57 43 44 40 1 0 74 33 41 38
94 31 59 96 45 25 47 71 19 79 57 20 66 58 33 36 29 42 5 0
15 64 93 98 58 45 77 52 37 55 93 24 18 77 47 46 57 43 33 76
80 75 47 2 0 66 41 68 57 36 38 71 18 66 59 78 17 59 76 35
63 93 92 68 56 26 56 51 44 4 0 85 99 23 44 34 87 53 42 80
99 43 29 30 94 56 92 79 26 78 93 51 20 83 16 94 5 0 16 41
86 37 15 61 82 28 82 57 51 86 90 52 78 23 46 55 94 83 97 69
23 57 26 74 3 0 54 80 40 18 88 72 93 47 16 76 38 23 56 48
32 44 62 44 19 40 57 86 47 86 77 76 68 5 0 94 63 60 48 38
85 95 66 77 90 46 22 42 17 67 94 68 92 62 90 95 39 59 89 92
81 88 18 3 0 85 30 60 19 97 26 44 47 16 60 65 87 48 29 24
75 46 18 78 62 85 62 44 65 96 66 66 62 58 2 0 54 65 53 45
28 42 75 35 44 88 84 94 37 77 81 90 54 15 18 81 82 46 49 36
27 65 26 64 60 72 1 0 100 15 67 53 25 34 46 81 100 16 68 70
33 89 36 47 77 58 84 75 16 52 30 96 88 97 98 66 36 19 37 4
0 43 83 65 30 15 27 98 68 72 72 81 71 80 80 16 38 61 77 65
23 40 72 68 83 30 40 87 62 75 63 59 90 1 0 68 50 42 68 49
31 28 83 96 80 80 80 24 70 71 68 56 76 77 52 15 98 49 45 68
86 73 97 17 55 95 76 41 4 0 65 82 97 58 57 47 91 75 23 91
47 66 66 29 81 58 62 73 49 34 89 58 98 31 69 40 43 74 79 17
37 22 64 100 1 0 56 31 76 85 53 40 43 65 81 33 55 58 72 71
89 57 63 28 52 64 77 22 22 17 36 42 92 16 86 70 57 15 66 68
95 1 0 91 36 96 78 19 93 74 19 75 26 99 77 75 57 54 90 95
52 96 23 92 29 32 78 38 55 57 30 23 40 34 99 98 57 29 62 3
0 73 83 70 80 66 69 18 56 90 80 91 98 46 72 29 45 42 42 56
47 72 74 60 91 23 40 43 54 29 79 27 21 45 95 45 92 85 2 0
32 68 29 57 86 15 67 23 54 30 99 82 90 42 70 53 50 91 26 35
91 24 62 43 82 88 73 93 22 89 49 21 61 33 80 51 66 41 3 0
21 44 68 80 89 84 74 50 53 65 56 57 59 90 55 75 84 90 25 42
63 63 22 48 45 24 65 66 22 69 28 99 66 30 96 17 99 64 40 5
0 17 69 64 80 85 49 35 54 76 94 87 55 22 74 96 43 67 76 74
19 54 99 92 23 73 53 97 35 98 77 80 20 61 21 82 87 23 44 43
44 1 0 54 91 38 33 70 16 41 28 17 58 27 62 68 56 36 19 28
56 75 19 17 26 82 81 59 74 47 64 24 38 25 47 53 81 29 90 88
55 36 58 71 1 0 27 38 87 49 99 56 27 42 19 58 64 92 78 29
100 28 29 30 66 20 92 40 31 34 57 66 49 66 88 91 84 98 100 22
76 92 72 42 83 32 26 62 3 0 20 37 83 19 16 78 49 17 90 78
93 16 98 58 25 81 24 87 46 46 93 58 17 18 23 98 68 17 94 77
79 67 86 53 59 65 87 32 68 47 68 18 96 5 0 48 35 71 54 71
28 26 69 26 26 40 59 79 48 22 47 41 50 52 39 54 76 38 60 60
73 69 18 25 33 52 38 91 17 23 100 33 16 95 92 90 15 66 66 1
0 66 26 43 84 35 33 80 46 45 91 83 97 26 49 95 70 34 41 52
83 55 37 55 40 48 29 64 86 56 57 66 57 99 99 87 43 24 44 26
32 94 55 61 55 38 5 0 51 71 95 52 29 88 58 21 29 22 18 47
15 43 99 80 52 56 33 32 77 81 93 60 75 51 74 77 36 19 81 22
99 42 53 18 22 94 98 64 61 17 37 73 46 39 5 0 15 37 32 66
45 55 99 90 44 74 20 95 48 16 92 54 37 77 94 74 15 15 80 76
37 40 61 62 75 59 82 29 38 43 62 59 82 53 79 15 57 35 85 40
71 35 33 1 0 19 94 84 83 30 84 38 79 51 24 69 52 41 51 46
96 17 53 44 44 87 97 83 79 59 40 50 16 24 100 67 45 51 73 35
27 68 85 58 96 16 23 45 18 57 38 30 22 1 0 40 32 44 43 87
55 36 61 73 68 81 68 77 46 59 42 18 80 63 38 48 48 44 62 25
57 66 45 45 31 25 34 72 50 62 59 24 21 75 29 28 19 78 26 89
77 35 54 37 1 0 83 29 34 93 81 52 61 51 77 37 96 62 93 53
42 75 47 83 32 51 23 65 72 55 34 25 55 25 19 96 80 90 69 52
50 95 85 90 90 34 90 24 93 37 20 78 73 49 39 20 2 0 49 99
65 71 85 77 78 40 50 84 20 17 48 20 84 67 74 39 17 18 30 72
91 62 36 62 51 35 43 98 47 83 87 78 70 55 44 66 18 31 41 34
57 48 73 49 68 18 84 25 56 3 0 36 80 82 53 81 19 59 99 74
18 95 52 57 15 100 16 49 80 77 51 34 78 34 78 51 20 91 23 17
78 37 61 100 48 43 38 16 16 58 73 59 25 22 42 41 68 46 82 96
56 63 62 1 0 96 62 91 82 29 31 71 94 20 77 97 69 15 67 71
34 52 22 67 67 33 29 43 15 57 49 18 55 21 26 53 35 55 34 38
18 40 27 48 23 68 58 23 90 82 86 92 52 75 50 56 51 54 1 0
80 82 24 80 37 90 79 77 55 93 68 64 82 91 80 91 78 47 75 18
31 96 41 40 29 38 59 64 98 65 76 86 42 84 70 20 76 53 78 61
43 15 19 69 88 87 75 79 53 53 99 34 93 16 1 0 72 43 87 24
41 100 65 23 55 80 45 51 36 64 96 42 80 100 23 77 36 58 92 67
80 80 72 86 52 47 48 26 67 16 42 64 22 79 58 46 79 69 24 36
39 24 84 92 31 37 21 41 65 17 38 4 0 20 65 45 98 26 45 72
86 34 74 48 55 70 27 92 64 23 48 61 86 72 93 71 27 63 58 16
48 100 40 54 73 39 34 93 83 57 81 92 90 28 74 76 23 41 20 73
62 31 95 54 31 82 34 56 78 3 0 95 80 85 91 78 70 98 40 74
41 75 15 25 15 54 91 39 92 52 90 53 95 87 80 67 61 32 83 31
70 55 74 34 22 69 28 16 40 62 38 98 21 37 96 89 47 85 55 32
86 96 96 73 62 20 28 69 1 0 45 55 75 40 47 48 40 15 75 15
76 85 64 99 48 23 34 46 24 17 85 85 46 17 100 72 100 76 45 45
81 38 99 89 96 59 80 73 96 48 71 54 51 84 73 18 89 37 74 71
29 43 48 91 65 51 48 51 4 0 54 31 59 63 27 46 46 47 19 29
32 65 50 20 15 23 27 52 45 86 86 22 17 43 26 70 73 27 95 95
22 83 96 63 21 81 74 30 70 55 62 37 94 43 24 47 53 94 63 54
98 68 66 89 89 90 81 92 53 2 0 95 53 58 32 65 52 96 72 54
74 39 22 21 41 43 22 57 65 46 40 73 87 31 55 65 91 15 58 83
64 81 96 53 57 70 89 69 64 50 62 31 94 44 41 76 24 18 70 68
77 78 21 70 62 38 15 32 35 70 32 4 0 93 94 58 50 92 51 58
77 79 48 67 54 25 76 42 87 46 65 16 60 71 95 45 63 86 15 85
71 74 69 94 68 45 75 99 69 53 98 46 38 19 99 37 20 87 69 31
36 48 51 33 54 85 39 16 32 34 20 41 43 96 2 0 79 57 37 25
54 77 18 47 50 59 53 61 57 25 85 100 86 74 24 37 27 23 86 16
91 30 66 28 44 60 52 57 94 56 52 32 64 68 61 52 56 26 20 22
76 44 55 83 86 26 51 48 90 71 19 44 54 77 43 66 60 66 3 0
83 57 41 73 88 22 60 21 63 38 25 55 95 54 20 92 98 81 80 87
26 44 75 39 28 15 33 86 72 83 46 60 91 33 80 87 34 93 59 44
40 16 49 57 17 18 43 56 83 55 68 49 87 62 77 75 51 68 89 37
85 93 68 2 0 64 89 44 38 52 93 54 17 93 95 20 47 63 92 78
28 49 62 34 78 96 91 74 35 67 94 72 67 29 94 17 38 43 88 30
84 49 59 85 82 29 60 41 33 27 21 95 72 90 78 17 69 84 63 74
66 39 35 27 38 54 22 20 73 1 0 85 73 46 64 41 25 18 48 96
27 43 58 49 55 74 82 26 27 44 32 18 55 25 19 63 65 68 22 84
29 75 31 69 19 59 93 63 37 96 40 85 52 28 48 43 30 29 78 52
51 92 97 80 32 65 74 90 59 38 15 60 78 45 49 37 4 0 61 75
16 33 88 37 86 60 19 92 48 91 44 42 86 32 35 75 81 35 64 86
84 21 27 57 59 23 18 26 17 31 30 25 29 64 51 30 71 38 18 76
28 63 45 52 25 79 71 46 70 29 71 91 31 66 51 46 16 88 93 47
79 23 16 95 1 0 20 65 15 91 31 78 99 83 60 62 90 46 92 80
87 39 96 76 58 72 76 48 50 98 26 83 94 61 80 29 92 94 30 85
87 89 46 97 31 25 34 72 56 58 40 46 87 49 84 31 88 53 60 92
78 88 72 26 16 35 77 99 58 84 100 18 53 2 0 95 34 61 47 37
15 83 50 96 25 96 60 28 32 25 54 19 67 96 35 35 45 80 17 88
52 68 57 40 41 76 29 16 84 100 83 20 87 21 70 68 22 34 58 16
87 68 32 74 65 55 81 38 31 44 31 48 32 27 43 74 86 55 61 32
91 97 83 3 0 81 89 96 100 97 54 33 61 17 95 63 83 67 17 61
60 97 60 17 22 24 17 20 42 45 24 93 100 17 78 69 44 58 37 67
66 84 35 62 98 92 25 71 37 79 84 25 80 39 28 41 52 39 99 65
55 46 23 30 28 59 62 80 61 82 27 99 18 75 3 0 64 28 90 90
92 61 55 91 95 17 15 95 98 94 63 95 71 22 53 69 26 93 85 39
62 66 28 46 54 69 22 94 49 77 35 46 22 83 26 66 92 91 59 55
87 97 83 67 30 71 40 31 25 77 32 77 53 77 79 69 89 96 34 74
86 21 39 85 67 19 3 0 99 55 63 87 43 21 34 20 56 30 21 78
41 15 84 74 90 97 68 27 26 45 70 50 42 59 35 75 59 80 57 71
32 56 26 68 91 16 18 65 28 33 16 36 22 28 21 48 88 37 36 34
46 61 61 70 92 23 54 27 61 54 16 74 25 76 98 63 22 71 62 5
0 94 26 39 96 16 25 43 69 73 35 53 81 100 93 75 64 42 74 27
87 96 40 31 46 77 83 30 82 77 55 48 42 39 97 49 82 58 58 57
72 89 96 23 93 95 89 40 27 75 23 33 75 93 100 81 40 53 88 26
30 93 85 91 98 88 39 33 26 16 88 46 67 5 0 26 84 72 19 54
87 76 52 80 52 56 32 73 86 64 77 54 78 96 99 48 94 25 70 66
95 96 84 36 26 56 66 92 30 54 22 79 30 73 35 58 76 95 28 59
23 85 67 59 15 16 15 98 65 38 85 98 82 75 93 71 92 89 39 36
97 98 76 92 90 98 24 42 3 0 90 54 63 79 85 15 42 97 65 29
60 65 74 88 52 65 47 81 73 88 69 43 19 78 99 43 97 61 55 90
96 98 44 96 82 15 75 55 93 66 57 79 27 21 53 99 56 65 64 98
92 27 73 76 54 62 86 49 82 91 76 95 83 97 81 19 65 30 73 98
15 100 52 67 2 0 87 75 38 95 62 95 95 21 45 20 44 75 29 84
42 73 22 99 55 81 56 32 52 66 61 72 89 96 20 98 37 30 88 17
37 74 81 71 29 31 54 50 51 20 67 34 68 49 91 44 79 65 20 18
29 82 78 64 25 56 82 60 64 36 45 74 21 49 60 27 62 80 71 98
73 4 0 86 88 30 36 62 35 57 30 47 47 66 82 77 32 97 66 54
67 17 20 90 88 56 79 20 55 70 21 52 89 78 24 35 25 89 31 100
19 99 29 37 54 55 62 92 25 94 60 16 61 95 43 78 76 99 46 34
52 78 20 77 67 16 100 24 27 62 99 83 91 78 27 24 71 82 49 5
0 92 39 52 48 57 19 84 70 60 96 38 69 59 90 67 84 67 40 32
94 48 29 54 38 69 96 49 48 19 93 83 95 60 77 62 52 58 99 91
21 99 48 78 26 47 49 21 44 45 59 30 81 40 51 100 59 88 52 67
32 50 84 86 28 34 73 26 72 35 59 82 18 39 38 77 57 79 5 0
17 17 69 49 54 46 33 30 67 89 53 66 71 34 71 27 21 29 74 87
60 38 66 44 75 92 56 59 87 76 74 95 59 72 62 15 33 84 33 88
100 53 20 29 91 70 50 42 48 69 15 73 44 29 24 62 94 16 94 27
87 43 74 49 81 76 15 93 67 34 100 25 19 75 97 96 36 35 3 0
59 56 80 51 24 34 30 64 75 73 78 80 70 48 57 65 15 50 79 18
71 77 67 26 86 57 43 20 24 79 39 65 99 95 18 69 18 55 73 97
34 84 90 70 44 32 25 39 72 86 34 51 72 60 59 51 63 57 22 58
35 17 94 67 19 46 86 22 88 35 39 53 46 81 57 18 68 85 75 3
0 57 92 32 89 97 97 32 22 15 70 60 41 48 59 87 72 28 72 92
29 92 43 61 23 62 76 91 24 32 32 76 92 72 25 99 71 22 97 62
77 79 21 98 56 34 79 67 39 45 47 89 38 72 25 97 34 24 21 20
91 85 96 18 53 72 60 64 30 51 25 84 37 97 99 80 26 81 49 86
37 1 0 51 40 97 90 24 22 72 59 63 49 72 81 89 50 28 75 70
20 16 92 76 41 96 16 30 91 89 58 30 75 88 47 75 66 67 54 39
58 34 80 61 22 42 51 53 77 46 49 51 60 57 48 67 70 62 66 64
20 97 57 78 64 75 89 23 20 44 78 26 86 55 28 89 31 65 78 21
51 42 39 64 5 0 21 37 87 98 23 64 54 94 49 26 76 22 72 82
100 70 86 76 28 42 59 42 46 17 88 36 70 21 22 96 99 17 75 54
15 63 27 37 52 15 23 89 17 51 38 36 50 79 71 48 18 69 19 89
58 97 19 22 45 38 34 21 40 53 62 20 16 100 69 67 54 91 93 44
60 41 94 24 63 98 48 100 4 0 26 68 56 43 46 17 66 42 93 32
47 92 31 50 36 21 61 84 38 49 98 33 43 83 53 42 15 87 62 65
74 31 73 55 41 94 63 27 89 44 47 17 51 85 65 53 68 54 28 92
79 79 72 45 19 46 89 43 54 39 22 22 55 52 71 96 43 89 34 63
59 50 84 58 37 91 97 100 73 33 94 75 96 1 0 58 20 94 85 35
33 31 83 32 33 30 92 78 77 41 97 89 39 69 50 27 19 36 31 63
36 27 44 100 93 37 41 50 79 72 40 78 40 76 91 54 30 91 47 23
15 15 86 79 88 19 45 39 58 23 20 21 81 75 28 96 80 85 94 96
49 42 59 34 71 35 56 79 50 55 65 52 62 26 96 33 64 45 75 2
0 24 31 36 52 63 72 30 23 92 91 99 71 65 87 87 27 37 93 23
75 54 39 78 56 99 18 49 50 26 30 89 28 45 69 86 93 36 67 37
63 34 47 25 61 86 45 32 51 61 52 98 29 97 17 28 35 77 57 80
69 94 88 28 21 36 31 82 89 40 77 47 58 59 27 24 31 92 94 51
33 61 58 90 98 23 5 0 43 94 75 22 32 96 75 82 58 21 64 22
36 96 96 93 60 21 33 60 26 60 49 52 81 84 100 87 62 100 63 97
70 71 89 49 96 79 88 34 63 71 92 35 62 33 99 99 21 59 39 40
15 45 91 91 73 73 84 62 52 16 49 93 27 81 64 80 46 59 91 97
24 54 64 27 28 52 99 66 34 89 81 93 46 24 4 0 36 96 89 33
72 21 98 28 36 28 38 86 83 60 77 25 84 51 38 21 70 88 30 88
70 80 59 95 58 61 16 22 92 45 18 79 88 67 55 24 76 59 38 42
98 54 85 95 40 80 82 18 42 80 50 62 15 63 22 72 20 98 64 77
77 56 72 91 32 71 30 22 74 79 61 20 66 17 16 32 93 64 94 36
73 58 43 2 0 83 31 74 35 47 85 89 29 57 52 76 53 74 66 70
36 29 40 98 42 29 36 91 43 59 68 17 73 36 36 67 54 64 84 30
95 35 97 35 86 52 22 90 91 25 23 86 64 29 17 70 56 81 41 31
41 55 91 84 29 85 64 85 23 97 29 88 78 88 23 29 57 50 48 92
71 58 23 20 96 29 21 37 64 69 65 16 48 1 0 61 68 51 43 97
38 42 95 37 89 67 79 100 16 82 19 41 28 42 41 68 74 98 34 42
33 16 22 87 29 33 89 84 19 56 63 47 50 29 37 42 69 94 82 88
69 35 27 80 81 52 46 71 91 32 73 31 56 46 81 61 22 38 78 15
33 46 20 95 21 41 36 57 63 22 31 35 52 23 63 82 85 76 31 72
52 27 88 57 1 0 72 91 88 36 55 94 22 90 63 81 60 19 61 67
37 31 100 37 29 37 20 50 23 71 48 100 49 90 38 23 87 20 41 30
78 79 78 28 23 87 57 82 40 92 88 19 50 26 80 65 35 63 55 95
46 16 47 80 94 80 52 23 93 60 48 21 75 34 78 96 79 60 87 40
40 90 63 99 69 20 40 54 42 20 79 45 74 18 82 51 2 0 28 46
86 50 45 89 51 29 18 62 83 44 79 15 28 93 56 31 99 49 60 56
53 46 100 100 64 61 43 70 36 39 22 63 71 45 60 22 98 22 50 87
80 83 40 84 15 36 27 88 43 19 87 47 50 51 65 38 98 85 98 63
26 95 81 32 26 63 43 26 63 52 69 25 45 27 96 15 71 99 87 100
24 50 39 37 88 97 36 19 18 5 0 40 85 17 27 70 62 32 33 26
38 27 75 75 40 84 51 72 44 63 19 96 69 83 23 16 79 66 89 47
86 75 57 61 68 61 29 74 42 96 23 44 59 43 97 61 69 80 70 22
90 44 32 95 49 77 68 39 83 89 85 94 86 37 42 51 77 47 94 73
32 36 23 51 31 54 43 18 27 79 24 96 75 71 90 56 30 15 22 56
74 99 73 5 0 36 55 48 42 37 46 64 58 94 86 21 41 52 60 56
71 81 18 63 18 46 93 31 48 61 26 49 88 65 85 81 32 73 84 57
58 98 74 81 98 97 99 78 92 36 72 26 96 32 42 87 71 67 62 60
74 95 97 67 16 25 43 64 99 71 25 87 86 99 68 60 71 74 63 59
63 15 77 66 17 30 70 90 21 47 79 67 35 28 35 41 43 90 2 0
20 89 18 19 27 36 90 17 83 94 59 30 80 54 47 97 45 35 59 71
18 23 47 63 73 79 78 92 60 73 83 23 16 32 68 34 93 96 55 25
83 37 31 27 34 96 55 82 66 89 67 40 43 17 50 15 96 94 72 45
33 15 75 100 90 19 39 89 54 68 83 99 73 33 20 88 65 34 20 20
58 99 19 49 44 85 60 15 86 93 26 15 97 28 1 0 76 55 44 53
93 18 24 68 89 26 28 23 20 87 70 38 34 85 93 80 85 75 79 21
31 21 79 92 80 47 56 23 32 71 78 83 39 97 81 79 74 52 100 79
55 58 27 19 34 42 96 87 15 81 23 85 31 52 24 40 24 20 80 71
46 15 29 21 70 71 74 19 77 16 62 24 93 64 92 56 34 85 71 26
41 27 38 80 90 52 35 48 87 29 79 5 0 49 53 43 49 41 39 19
62 95 18 71 100 85 29 95 27 88 91 98 94 71 37 74 40 68 60 22
70 90 15 65 22 42 65 18 83 64 56 38 50 91 70 81 100 95 61 43
30 55 48 99 25 73 85 27 46 74 36 45 42 91 65 23 69 28 88 58
46 91 34 41 85 60 37 66 32 92 43 41 84 47 22 33 69 26 59 79
51 60 62 94 23 56 31 18 94 2 0 53 57 67 95 93 68 83 47 60
20 74 37 43 62 81 39 28 68 85 37 81 84 48 100 84 71 43 65 49
39 86 80 32 64 38 75 52 62 71 79 49 89 75 57 19 68 20 43 41
35 70 84 64 83 70 31 54 84 58 93 75 37 86 89 99 75 44 21 35
61 58 91 70 85 70 64 100 84 75 86 60 19 44 98 56 54 58 31 82
22 60 89 28 45 36 85 22 3 0 2509 8 96 21 58 81 16 26 47 58
56 19 18 20 44 51 29 19 68 93 19 55 22 43 68 92 19 64 85 94
68 21 22 58 90 66 38 57 42 18 100 17 85 76 67 27 43 72 49 53
46 42 78 15 86 15 20 63 85 65 28 75 88 100 64 39 80 25 26 16
23 15 65 80 62 50 28 69 44 73 57 82 46 99 57 91 45 53 19 69
74 63 67 59 89 16 97 92 4 0
EOF