NAME: trap20
TYPE: TSP
COMMENT: Synthetic explicit-edge TSP designed as a nearest-neighbor greedy trap
DIMENSION: 20
EDGE_WEIGHT_TYPE: EXPLICIT
EDGE_WEIGHT_FORMAT: FULL_MATRIX
EDGE_WEIGHT_SECTION
0 1 8 80 80 80 80 80 80 80 80 80 80 80 80 80 80 80 80 400
1 0 1 80 80 80 80 80 80 80 80 80 80 80 80 80 80 80 80 8
8 1 0 1 80 80 80 80 80 80 80 80 80 80 80 80 80 80 80 80
80 80 1 0 1 80 80 80 80 80 80 80 80 80 80 80 80 80 80 80
80 80 80 1 0 1 80 80 80 80 80 80 80 80 80 80 80 80 80 80
80 80 80 80 1 0 1 80 80 80 80 80 80 80 80 80 80 80 80 80
80 80 80 80 80 1 0 1 80 80 80 80 80 80 80 80 80 80 80 80
80 80 80 80 80 80 1 0 1 80 80 80 80 80 80 80 80 80 80 80
80 80 80 80 80 80 80 1 0 1 80 80 80 80 80 80 80 80 80 80
80 80 80 80 80 80 80 80 1 0 1 80 80 80 80 80 80 80 80 80
80 80 80 80 80 80 80 80 80 1 0 1 80 80 80 80 80 80 80 80
80 80 80 80 80 80 80 80 80 80 1 0 1 80 80 80 80 80 80 80
80 80 80 80 80 80 80 80 80 80 80 1 0 1 80 80 80 80 80 80
80 80 80 80 80 80 80 80 80 80 80 80 1 0 1 80 80 80 80 80
80 80 80 80 80 80 80 80 80 80 80 80 80 1 0 1 80 80 80 80
80 80 80 80 80 80 80 80 80 80 80 80 80 80 1 0 1 80 80 80
80 80 80 80 80 80 80 80 80 80 80 80 80 80 80 1 0 1 80 80
80 80 80 80 80 80 80 80 80 80 80 80 80 80 80 80 1 0 1 80
80 80 80 80 80 80 80 80 80 80 80 80 80 80 80 80 80 1 0 8
400 8 80 80 80 80 80 80 80 80 80 80 80 80 80 80 80 80 8 0
EOF