NAME: graph-018
TYPE: TSP
COMMENT: Synthetic varied-weight explicit TSP with a nearest-neighbor greedy trap
DIMENSION: 40
EDGE_WEIGHT_TYPE: EXPLICIT
EDGE_WEIGHT_FORMAT: LOWER_DIAG_ROW
EDGE_WEIGHT_SECTION
0 1 0 8 2 0 18 19 2 0 66 89 90 1 0 95
66 41 58 3 0 100 35 46 53 64 1 0 79 43 47 73
41 89 4 0 53 61 18 53 82 21 80 3 0 30 55 20
17 32 65 71 59 2 0 70 93 26 77 95 68 19 16 24
5 0 83 73 43 87 88 68 66 73 43 45 1 0 85 58
52 70 60 52 74 25 64 19 76 2 0 45 48 86 75 79
56 61 98 100 16 75 47 2 0 45 23 100 36 20 62 25
79 22 46 60 26 34 1 0 19 48 88 100 73 38 51 51
70 84 36 100 54 78 5 0 20 97 61 77 33 65 19 76
76 75 49 52 38 33 33 1 0 23 39 23 92 35 62 17
43 64 47 49 26 52 15 95 61 5 0 70 30 52 47 56
29 43 36 89 49 94 50 62 39 99 43 22 1 0 96 27
50 38 39 25 88 45 49 62 88 18 29 54 33 31 37 65
5 0 82 33 37 30 69 79 66 93 100 93 70 93 21 24
61 18 62 65 55 2 0 19 80 84 56 46 26 86 63 100
54 23 56 71 88 81 50 66 70 62 49 1 0 73 98 98
50 83 43 60 66 23 61 53 99 51 44 59 98 86 57 85
35 66 4 0 96 80 37 86 59 56 47 84 71 52 77 60
62 100 27 62 97 96 79 78 59 57 1 0 92 45 48 16
75 83 85 83 78 52 72 51 52 50 20 17 51 58 92 60
26 26 93 1 0 17 16 30 61 69 69 32 67 39 59 20
97 43 15 28 52 47 31 73 19 78 75 17 78 2 0 25
60 43 42 47 46 82 56 24 43 62 55 38 93 70 71 58
41 82 40 21 91 48 69 34 5 0 36 35 39 93 93 91
15 88 92 22 64 51 95 59 19 49 18 73 78 32 84 80
50 98 45 30 5 0 43 16 97 39 59 84 64 69 63 42
39 74 58 75 68 52 73 62 25 56 77 95 32 36 29 23
91 5 0 40 95 62 54 66 55 89 30 18 43 92 54 88
93 81 71 81 67 66 69 24 68 75 57 38 80 79 100 4
0 70 96 45 51 45 40 83 49 31 16 26 50 98 21 79
33 75 72 31 92 59 79 43 26 20 32 83 64 87 2 0
90 20 56 96 17 22 92 96 89 82 67 88 37 33 37 22
78 56 84 67 48 48 34 85 21 64 42 25 32 24 4 0
93 99 20 28 45 57 85 66 86 63 74 62 49 29 83 64
67 33 56 22 22 45 63 68 17 93 31 90 60 62 67 3
0 58 43 64 64 55 56 46 67 65 56 72 83 78 93 93
15 67 97 16 74 16 65 64 51 52 36 26 51 30 92 28
34 3 0 93 57 25 53 71 20 61 30 71 94 49 39 45
21 31 70 65 92 68 34 48 67 80 98 49 91 49 30 87
40 55 40 15 3 0 39 63 21 64 89 100 61 53 71 92
67 37 21 91 19 97 80 97 93 68 73 51 43 36 100 36
46 42 28 69 43 100 52 61 5 0 75 60 67 31 92 74
24 55 36 96 35 92 58 49 97 30 95 48 62 72 49 19
99 99 90 24 87 96 62 84 92 65 58 20 68 3 0 56
23 58 72 29 16 38 84 91 47 32 96 64 33 27 38 83
41 17 30 23 98 34 99 29 51 32 61 85 83 76 93 38
80 89 64 5 0 72 67 33 33 17 45 52 44 29 88 27
97 40 24 57 40 88 44 25 27 98 100 87 76 100 85 24
47 82 34 96 22 87 43 17 39 86 1 0 1009 10 66 40
78 65 16 36 39 76 75 29 31 25 95 24 99 42 24 46
89 65 52 85 89 88 15 17 89 20 44 69 67 79 29 22
54 58 1 0
EOF