NAME: graph-021
TYPE: TSP
COMMENT: Synthetic varied-weight explicit TSP with a nearest-neighbor greedy trap
DIMENSION: 60
EDGE_WEIGHT_TYPE: EXPLICIT
EDGE_WEIGHT_FORMAT: LOWER_DIAG_ROW
EDGE_WEIGHT_SECTION
0 1 0 9 3 0 84 69 1 0 50 89 50 3 0 46
98 18 41 4 0 96 62 85 16 44 5 0 19 48 89 62
22 74 3 0 71 21 68 50 49 31 80 3 0 75 50 37
22 87 32 53 92 3 0 88 24 29 40 47 17 32 66 62
2 0 23 25 19 67 63 73 46 28 76 46 4 0 55 37
15 88 28 76 83 46 56 85 44 4 0 49 89 68 25 27
37 21 55 63 32 83 72 3 0 52 72 58 53 17 15 99
75 20 60 25 23 60 2 0 75 43 19 36 95 15 16 19
81 74 50 67 34 22 1 0 24 89 91 67 45 43 51 55
34 96 26 59 78 55 87 1 0 35 32 66 80 66 71 32
21 42 92 36 62 44 96 55 85 4 0 36 95 80 76 80
33 55 97 45 91 33 52 63 66 70 55 79 4 0 21 69
76 22 50 79 25 84 39 83 65 31 22 82 70 72 56 96
4 0 28 65 60 43 97 64 97 62 21 21 68 29 88 96
81 57 49 40 90 5 0 85 49 84 98 35 65 87 68 32
95 29 48 49 63 74 30 61 60 89 40 4 0 52 70 45
55 72 61 55 96 22 16 37 47 59 58 74 43 25 68 16
31 84 2 0 21 37 47 29 88 96 33 93 16 72 54 72
76 21 80 100 91 22 22 47 71 21 2 0 83 95 91 73
89 94 45 84 66 86 64 35 65 48 97 24 73 53 29 94
65 79 23 4 0 74 69 80 34 86 98 92 80 20 64 89
28 42 36 15 21 57 71 48 48 45 25 92 19 4 0 29
32 49 49 44 71 51 94 78 75 34 66 18 95 62 15 74
58 82 100 72 52 98 63 53 3 0 40 93 57 57 25 21
32 67 68 79 73 95 30 30 20 72 46 100 44 60 39 79
87 92 85 43 2 0 92 75 38 29 96 25 20 48 27 24
50 91 17 79 36 82 93 94 42 68 85 84 83 59 97 65
90 4 0 96 51 70 67 31 34 74 57 93 75 73 100 57
50 89 83 22 40 86 32 87 80 91 44 84 23 24 37 4
0 71 28 90 49 50 39 28 25 93 30 54 40 92 96 27
25 32 35 53 75 16 86 40 80 95 94 50 62 20 5 0
96 59 59 43 87 89 48 63 88 26 87 33 92 35 24 18
25 22 19 95 38 48 64 95 18 75 52 46 75 24 4 0
50 16 82 90 49 44 69 34 60 72 92 16 36 50 55 27
81 60 84 70 98 43 29 29 74 48 61 38 83 53 64 2
0 82 72 63 97 75 17 71 38 30 72 78 99 60 47 23
24 17 37 94 29 91 24 85 44 57 83 60 94 65 20 74
64 3 0 58 86 36 82 86 59 30 78 68 50 74 35 65
66 42 28 98 56 86 74 80 65 19 27 26 75 93 100 63
68 52 42 56 3 0 100 52 83 20 50 22 90 95 30 28
42 30 24 86 56 40 32 30 94 89 56 53 82 48 34 40
36 31 76 20 83 82 95 60 1 0 62 60 56 100 67 94
23 51 33 31 66 71 48 97 56 62 90 60 85 24 68 54
69 34 19 73 22 100 66 23 18 52 33 48 60 2 0 65
95 23 53 76 41 79 63 80 79 47 50 29 66 65 88 29
38 26 34 48 61 49 16 42 50 96 92 46 77 26 98 70
30 40 23 5 0 29 29 36 74 90 57 20 64 80 89 92
69 78 53 58 71 26 97 38 21 96 15 34 30 81 61 20
35 88 60 39 59 18 94 97 61 68 5 0 43 24 44 78
29 32 60 68 94 49 43 46 91 49 98 83 51 75 48 80
20 47 92 61 82 60 61 59 97 50 77 53 19 63 48 70
60 20 1 0 46 79 18 51 79 53 39 32 35 78 25 33
24 36 93 47 84 30 98 86 19 99 21 69 51 86 73 53
36 61 26 78 36 46 74 40 72 81 89 2 0 74 26 92
72 33 45 91 64 94 55 74 60 72 68 40 39 44 98 41
77 37 20 47 53 58 33 89 30 28 74 48 49 19 27 25
64 89 100 26 51 3 0 71 70 77 66 32 88 28 28 39
85 60 68 19 73 74 38 89 90 85 58 34 94 27 76 84
61 97 92 59 94 38 74 98 54 77 58 49 51 49 70 72
5 0 75 56 79 74 36 53 84 71 18 92 59 66 89 23
89 86 86 72 22 19 26 51 35 24 92 81 39 72 43 25
25 24 100 36 79 60 74 38 18 17 44 18 5 0 29 89
34 52 57 76 30 19 49 33 89 39 42 42 96 61 24 17
29 66 55 92 100 40 24 47 97 92 52 19 37 82 71 22
52 32 45 70 16 77 82 77 50 4 0 97 27 89 70 57
64 49 32 32 89 98 21 84 45 17 85 18 89 90 57 75
33 29 60 65 68 58 73 98 89 48 56 36 70 62 52 74
60 89 33 79 81 59 89 5 0 84 27 73 100 37 41 70
52 27 25 37 37 91 45 50 21 37 66 65 36 49 98 69
61 45 15 33 79 18 21 15 33 30 81 40 73 62 92 81
18 75 91 93 28 40 1 0 43 35 99 82 42 31 16 76
69 28 29 51 98 89 82 37 68 75 35 71 75 90 68 99
56 28 99 28 24 29 27 79 87 75 48 100 20 26 84 36
84 93 39 93 62 45 3 0 74 65 43 83 73 70 47 21
86 97 33 46 48 58 32 31 22 15 89 70 49 25 74 76
71 100 39 54 68 50 62 32 50 33 96 85 76 41 100 62
33 27 99 41 22 69 82 4 0 75 35 58 64 59 95 52
22 80 83 79 31 61 24 64 42 55 61 42 50 21 72 98
45 81 33 44 62 84 46 76 42 93 50 69 62 32 33 86
17 75 70 90 36 53 68 50 100 5 0 51 61 97 16 74
80 61 30 28 40 33 65 33 32 89 39 68 68 63 69 35
34 79 57 22 37 56 45 27 80 73 53 64 15 77 23 64
55 88 26 92 32 43 64 46 22 39 63 36 2 0 32 41
85 84 20 15 41 38 94 61 27 28 59 25 52 70 61 93
82 63 69 51 66 60 28 16 16 97 53 30 38 64 23 37
45 80 76 33 22 46 58 92 48 32 54 98 82 63 73 71
4 0 50 32 86 32 31 79 81 80 70 89 15 47 93 99
30 97 93 67 23 33 54 95 42 39 90 39 18 96 47 66
98 75 85 21 68 99 20 73 63 100 16 47 62 95 30 21
37 26 71 44 67 4 0 15 25 35 66 83 92 89 84 63
29 32 61 83 97 77 55 71 25 84 81 17 96 37 78 94
42 23 99 87 73 98 28 43 34 57 43 55 84 89 19 31
71 62 51 81 76 47 51 16 68 90 15 1 0 17 29 21
83 34 20 40 60 55 69 38 83 83 29 18 69 69 82 71
99 81 47 47 90 98 17 55 74 45 74 85 82 92 44 65
78 27 88 74 32 67 34 25 98 87 17 86 72 45 74 45
33 51 1 0 83 18 58 47 40 72 25 42 27 44 78 79
40 78 51 42 59 29 75 61 46 62 88 23 38 61 44 33
28 67 55 33 26 90 88 60 51 77 37 88 52 30 23 82
71 78 27 63 30 36 72 55 47 22 3 0 44 58 80 53
61 31 91 98 82 25 57 22 56 83 64 54 58 72 68 29
60 29 97 63 55 43 93 61 30 69 41 23 56 81 41 25
71 79 98 90 57 26 51 45 63 26 27 51 37 89 19 66
76 76 88 4 0 39 58 38 61 61 94 79 36 59 79 80
41 89 50 41 15 49 39 77 46 30 82 19 41 78 22 85
41 19 61 84 62 31 40 40 85 94 18 35 18 39 18 18
76 64 95 24 40 56 27 29 96 85 43 90 91 4 0 36
84 51 47 34 45 74 41 84 24 26 97 67 29 64 65 49
58 25 16 59 51 99 43 80 96 86 77 40 26 74 33 40
19 68 25 25 62 16 88 17 75 38 73 21 64 29 97 85
33 35 33 64 26 54 44 69 5 0 1531 12 38 49 75 78
27 70 93 44 57 95 67 32 85 77 91 45 56 32 48 33
81 68 52 51 78 52 37 55 33 18 59 25 42 58 78 84
53 19 67 81 37 80 83 81 64 74 77 26 94 52 53 28
28 100 24 51 1 0
EOF