NAME: graph-020
TYPE: TSP
COMMENT: Synthetic varied-weight explicit TSP with a nearest-neighbor greedy trap
DIMENSION: 50
EDGE_WEIGHT_TYPE: EXPLICIT
EDGE_WEIGHT_FORMAT: LOWER_DIAG_ROW
EDGE_WEIGHT_SECTION
0 1 0 7 1 0 37 95 4 0 100 73 40 1 0 74
46 55 64 5 0 71 80 59 17 85 2 0 75 20 18 23
70 81 3 0 62 93 81 40 82 16 86 4 0 68 81 76
27 71 63 57 66 2 0 84 94 91 50 56 84 86 17 55
5 0 35 45 95 79 93 38 68 91 98 27 5 0 94 46
93 80 62 45 28 91 16 98 79 4 0 26 87 91 73 42
57 33 72 36 60 88 87 3 0 73 52 97 47 34 72 16
57 63 17 68 39 77 1 0 45 52 83 36 71 32 92 65
26 64 37 80 26 67 2 0 41 31 66 69 71 98 44 96
20 25 40 65 20 100 49 3 0 67 69 65 45 49 79 32
77 38 62 56 44 49 40 88 41 4 0 100 64 99 15 67
99 90 27 74 27 56 21 28 93 77 30 31 3 0 41 94
47 72 55 72 47 37 36 47 85 100 61 90 24 22 51 50
2 0 92 52 100 59 62 59 91 60 52 44 54 31 53 89
84 84 98 47 64 4 0 34 35 96 26 75 91 90 69 16
98 27 33 34 67 33 43 67 19 72 91 5 0 75 72 23
94 51 86 35 51 19 91 43 67 88 22 94 66 46 32 42
43 60 4 0 72 59 55 90 73 64 69 51 80 44 89 99
70 76 90 66 46 55 57 22 90 47 2 0 28 95 29 46
61 41 92 89 39 46 22 64 80 79 82 95 57 47 21 64
88 35 56 3 0 100 27 76 100 85 88 53 95 58 56 28
46 98 25 31 18 29 26 19 27 96 74 29 18 5 0 35
26 91 71 42 58 26 52 93 93 36 23 77 35 63 77 34
52 35 38 59 91 30 32 70 1 0 77 45 65 97 56 47
67 100 57 58 96 62 22 28 39 35 73 50 59 56 96 41
55 61 45 45 2 0 94 87 83 83 98 19 96 79 68 45
71 76 57 80 22 96 56 25 19 60 41 47 31 64 82 80
61 4 0 83 45 61 91 80 70 42 53 16 78 30 21 63
19 98 81 100 98 16 72 56 24 43 67 92 64 19 59 2
0 75 85 44 51 85 51 45 15 61 23 100 50 16 85 66
67 96 99 82 90 31 58 96 46 77 43 74 57 30 5 0
20 84 91 64 86 76 73 84 42 61 15 41 25 93 88 22
33 93 53 26 61 62 18 84 47 15 89 32 80 66 4 0
71 79 18 39 75 30 100 24 62 90 58 35 20 47 43 69
50 62 86 82 82 82 51 15 84 38 24 19 37 67 84 4
0 21 96 66 66 63 83 83 49 50 78 61 98 51 36 98
94 77 97 60 56 69 75 95 95 31 35 82 16 77 77 16
64 4 0 59 20 100 86 26 43 33 64 99 92 74 86 22
100 79 93 54 43 87 40 36 34 64 95 82 67 49 55 41
29 50 95 43 1 0 42 79 30 90 46 88 86 57 84 28
95 60 16 79 21 84 78 89 47 49 33 37 56 60 44 84
78 80 81 47 15 42 98 99 5 0 30 27 50 63 90 70
92 24 64 65 75 56 95 67 65 57 15 99 55 52 52 30
44 67 93 62 90 52 26 54 96 55 97 45 74 3 0 83
32 80 76 56 37 60 62 75 26 17 82 25 47 83 89 84
85 73 38 78 45 38 61 52 44 73 88 50 37 49 53 52
26 56 26 1 0 26 22 57 43 63 82 72 37 25 40 69
90 30 69 87 45 60 71 98 91 41 39 19 55 20 48 56
50 72 29 75 49 84 99 98 87 75 1 0 93 60 93 100
67 76 76 20 40 57 80 66 62 19 49 61 25 52 96 20
76 61 80 82 75 17 25 37 41 44 47 47 16 39 58 29
66 27 4 0 48 46 72 32 61 67 48 30 99 71 31 41
85 74 41 23 59 50 71 79 42 94 34 31 15 20 36 71
17 75 86 19 49 16 27 48 66 94 50 1 0 34 86 59
60 92 63 36 88 58 68 90 86 67 63 32 63 67 40 56
67 45 45 27 22 30 95 18 70 81 44 28 89 55 25 87
59 90 65 77 89 3 0 18 73 26 23 49 85 21 51 38
65 64 60 93 73 79 79 89 62 51 23 88 73 23 69 25
84 30 29 87 86 59 95 74 86 33 79 55 81 29 38 95
2 0 97 28 82 90 72 35 80 68 25 99 64 97 87 79
48 28 15 30 15 80 27 45 58 25 85 28 52 83 74 27
68 61 60 94 65 82 30 67 55 16 78 63 1 0 84 69
31 71 57 50 87 15 16 85 93 86 98 68 39 94 55 55
96 88 17 65 80 29 27 20 51 70 95 59 83 18 52 89
58 37 98 36 96 42 42 80 28 1 0 53 95 67 65 18
37 54 43 91 65 64 87 33 82 42 45 98 48 93 72 75
64 95 55 44 28 31 60 73 78 66 18 35 29 83 98 33
97 59 100 79 61 84 86 2 0 74 44 18 78 32 28 42
85 46 65 20 75 28 28 24 80 88 80 52 92 29 56 87
76 33 70 56 80 100 87 44 76 68 36 66 40 75 48 91
66 56 99 27 35 69 4 0 45 77 16 84 81 50 52 77
71 46 40 23 57 79 84 93 87 82 20 72 88 100 15 17
43 54 35 30 31 35 45 65 53 72 25 40 61 81 52 52
80 77 96 83 45 53 5 0 54 58 78 66 93 84 23 89
70 18 80 85 63 29 86 47 60 57 33 71 68 61 70 77
56 93 50 73 33 71 24 33 16 62 43 54 78 95 43 54
50 37 80 77 55 15 86 2 0 1267 9 33 53 22 17 48
100 75 88 85 38 57 46 35 81 49 46 38 77 53 87 66
86 22 77 52 99 28 93 29 58 82 84 96 57 68 99 37
74 47 89 89 75 67 29 48 61 4 0
EOF