NAME: graph-019
TYPE: TSP
COMMENT: Synthetic varied-weight explicit TSP with a nearest-neighbor greedy trap
DIMENSION: 45
EDGE_WEIGHT_TYPE: EXPLICIT
EDGE_WEIGHT_FORMAT: LOWER_DIAG_ROW
EDGE_WEIGHT_SECTION
0 1 0 9 1 0 78 56 2 0 35 97 82 1 0 46
99 69 59 5 0 98 74 55 62 57 1 0 46 92 54 44
63 27 4 0 97 70 73 24 47 67 53 4 0 55 52 71
34 96 56 94 64 1 0 96 93 47 30 25 68 27 60 94
3 0 91 66 47 85 26 45 96 63 47 84 3 0 97 38
77 66 84 91 51 54 74 82 23 1 0 52 92 51 71 45
52 61 16 71 27 85 21 3 0 67 51 52 38 79 52 58
24 33 33 89 80 72 4 0 93 42 19 25 54 72 74 84
89 78 85 36 19 58 4 0 45 51 67 47 45 30 41 17
85 57 32 98 44 59 41 4 0 68 28 61 70 85 61 82
46 91 68 64 53 15 57 56 84 5 0 73 89 60 71 93
23 74 76 25 65 20 42 37 90 47 68 37 5 0 24 54
44 95 61 18 91 75 87 35 35 67 77 47 54 50 74 47
4 0 100 79 38 19 69 51 100 80 75 54 94 40 71 46
90 18 24 67 47 1 0 56 39 31 28 44 27 24 44 74
94 80 53 18 90 92 57 36 65 93 56 3 0 98 58 70
48 16 37 22 70 61 97 26 74 36 92 78 24 94 90 97
76 37 5 0 19 17 79 94 91 23 15 55 99 43 39 53
59 76 87 17 100 91 60 76 35 95 3 0 62 46 61 53
47 32 37 28 34 100 72 48 22 17 42 22 74 15 95 90
99 52 72 5 0 62 52 45 74 98 92 70 98 26 98 64
73 48 47 89 78 32 89 15 32 15 24 72 72 1 0 58
41 52 25 98 20 81 45 88 17 28 97 66 81 80 44 46
28 24 35 74 66 100 53 32 4 0 49 89 83 49 23 70
52 77 68 77 21 98 34 79 73 27 32 53 66 93 20 65
50 90 71 56 3 0 41 58 79 89 43 28 59 65 31 40
46 56 43 24 24 39 26 56 73 45 44 71 39 91 50 97
88 4 0 76 15 55 75 83 99 60 50 77 87 31 77 59
87 28 64 54 54 35 62 18 50 63 61 61 98 24 50 2
0 87 36 96 22 92 76 30 49 48 91 41 32 40 70 63
68 65 42 33 64 97 45 31 47 32 15 46 90 32 5 0
28 55 52 60 72 77 70 98 58 98 84 96 63 83 20 84
27 67 77 81 19 63 57 71 61 82 56 84 60 57 3 0
28 24 53 57 96 99 34 52 65 34 87 73 43 76 21 29
92 68 36 64 28 82 61 34 99 31 42 37 74 92 90 5
0 86 32 20 44 85 68 25 80 97 16 20 42 49 25 18
84 64 59 80 89 77 49 39 89 31 46 96 53 60 77 75
64 5 0 35 25 21 57 45 83 92 99 16 87 70 35 52
86 97 55 42 30 95 44 68 51 22 93 35 19 90 94 29
30 21 15 67 2 0 52 79 69 41 57 89 28 40 31 38
24 55 91 56 31 56 33 65 91 15 78 41 100 16 65 25
88 90 95 52 18 77 88 30 4 0 71 70 86 39 47 51
62 90 40 56 57 70 70 49 25 69 15 71 70 74 18 35
63 79 56 28 30 51 77 92 56 38 57 80 24 5 0 67
65 98 39 41 84 66 84 44 71 32 22 19 93 23 96 29
28 20 81 71 81 26 78 60 89 34 15 82 17 42 27 64
93 69 39 5 0 21 95 24 76 16 19 15 53 23 40 69
56 68 33 51 39 32 100 93 58 45 66 47 52 21 76 68
33 20 33 80 33 83 55 72 93 45 1 0 38 37 58 25
88 93 36 55 74 98 56 15 70 30 89 57 41 44 96 30
37 31 62 42 84 69 97 78 56 31 73 60 82 64 37 72
85 89 1 0 30 74 82 69 22 89 82 40 48 53 69 18
30 86 64 91 45 94 69 85 84 55 77 68 76 52 61 16
66 44 48 27 29 37 45 20 36 60 82 4 0 20 61 31
16 96 58 15 63 94 90 55 27 28 83 18 82 25 27 62
17 69 41 26 96 24 58 26 80 15 69 76 19 37 53 84
50 30 73 56 83 1 0 99 38 41 37 80 85 52 80 17
72 21 80 89 91 68 95 16 84 34 84 46 33 91 79 53
47 55 78 76 34 46 49 49 30 87 39 64 21 69 17 17
2 0 21 63 46 23 95 70 33 25 18 21 99 81 22 61
33 65 32 28 92 69 81 19 85 97 98 44 53 45 24 29
73 73 49 98 74 82 85 88 54 24 59 75 3 0 1145 10
81 30 41 89 52 19 57 51 44 30 19 22 18 17 70 96
74 98 69 20 49 97 31 81 87 91 91 80 46 23 97 71
63 98 64 41 93 28 32 42 74 4 0
EOF