NAME: vartrap06
TYPE: TSP
COMMENT: Synthetic explicit-edge TSP with varied edge costs and a greedy NN trap
DIMENSION: 12
EDGE_WEIGHT_TYPE: EXPLICIT
EDGE_WEIGHT_FORMAT: FULL_MATRIX
EDGE_WEIGHT_SECTION
0 1 5 55 24 18 37 51 54 39 36 80
1 0 1 28 27 24 43 40 28 45 42 5
5 1 0 1 32 29 37 51 34 21 38 25
55 28 1 0 1 29 43 52 50 54 49 50
24 27 32 1 0 3 55 36 51 25 54 44
18 24 29 29 3 0 3 36 34 54 26 25
37 43 37 43 55 3 0 3 48 43 40 55
51 40 51 52 36 36 3 0 2 53 30 31
54 28 34 50 51 34 48 2 0 3 29 38
39 45 21 54 25 54 43 53 3 0 4 46
36 42 38 49 54 26 40 30 29 4 0 7
80 5 25 50 44 25 55 31 38 46 7 0
EOF