NAME: graph-017
TYPE: TSP
COMMENT: Synthetic varied-weight explicit TSP with a nearest-neighbor greedy trap
DIMENSION: 35
EDGE_WEIGHT_TYPE: EXPLICIT
EDGE_WEIGHT_FORMAT: LOWER_DIAG_ROW
EDGE_WEIGHT_SECTION
0 1 0 10 2 0 58 79 3 0 56 82 56 1 0 80
60 34 34 4 0 41 52 30 25 31 3 0 23 23 47 47
69 47 3 0 80 98 63 65 93 67 19 4 0 73 32 80
21 59 68 92 15 1 0 83 29 88 39 27 20 26 27 62
1 0 29 94 89 54 90 78 78 43 23 72 1 0 45 34
37 80 72 96 78 54 33 77 56 4 0 91 21 19 76 36
78 17 16 88 67 36 74 1 0 65 93 92 63 60 99 39
63 75 100 44 20 51 1 0 82 45 97 72 92 56 50 36
29 15 66 22 85 63 4 0 46 72 67 85 27 26 72 99
22 89 83 94 17 39 100 4 0 15 85 85 51 16 26 87
39 46 33 92 49 82 95 72 92 5 0 25 29 33 28 84
49 89 22 52 75 28 98 80 65 63 49 68 3 0 49 77
60 25 40 50 80 75 94 35 69 43 35 90 33 53 52 32
1 0 46 23 56 29 63 70 82 89 73 68 33 81 56 22
100 74 35 49 48 5 0 33 68 36 30 100 55 81 42 96
20 95 50 15 53 39 56 91 92 65 90 5 0 39 41 23
55 100 95 59 82 71 96 53 49 81 26 87 42 92 15 16
35 98 3 0 32 84 72 20 36 42 40 63 26 99 39 44
53 44 25 75 20 57 67 40 72 43 2 0 50 39 62 48
43 76 59 33 50 88 60 52 33 67 58 65 97 22 40 44
86 74 90 3 0 44 61 43 48 38 21 54 81 29 28 74
62 36 30 91 34 60 81 76 20 23 54 77 28 4 0 81
68 37 49 79 19 68 51 44 78 78 85 68 49 53 30 92
95 21 82 19 41 59 51 27 3 0 98 60 25 46 85 81
52 92 33 90 86 40 53 27 83 33 93 38 64 29 17 15
74 76 54 68 5 0 79 50 86 32 42 22 62 83 49 17
23 52 42 22 62 51 55 88 87 99 47 69 78 86 23 67
41 2 0 64 23 34 96 93 62 40 61 85 62 21 32 34
43 41 84 60 83 45 79 65 93 47 43 47 51 95 49 3
0 85 76 76 92 49 24 17 30 48 57 42 17 69 58 19
97 28 16 38 87 63 60 88 98 22 46 31 94 94 4 0
90 24 74 36 97 51 16 43 25 46 75 41 54 23 84 28
51 59 32 61 44 60 96 55 47 48 43 67 15 83 2 0
28 94 83 74 70 76 93 41 70 70 18 97 85 18 41 89
68 99 23 20 29 30 32 41 47 90 55 74 68 27 45 1
0 53 82 63 35 96 23 24 99 26 54 96 56 31 47 18
98 54 69 85 61 82 76 71 52 66 15 74 77 94 59 48
17 3 0 875 8 63 85 40 30 73 81 36 72 90 67 62
88 41 53 20 87 92 78 28 40 100 19 22 79 22 56 21
19 42 57 81 1 0
EOF