NAME: graph-024
TYPE: TSP
COMMENT: Synthetic varied-weight explicit TSP with a nearest-neighbor greedy trap
DIMENSION: 90
EDGE_WEIGHT_TYPE: EXPLICIT
EDGE_WEIGHT_FORMAT: LOWER_DIAG_ROW
EDGE_WEIGHT_SECTION
0 1 0 8 2 0 64 74 3 0 52 30 71 4 0 28 100 53 62 1
0 98 82 81 87 50 1 0 76 67 21 93 21 55 3 0 69 78 47 100
24 32 31 3 0 75 64 48 93 70 18 26 83 2 0 94 68 44 31 65
54 33 68 31 3 0 69 73 57 38 73 66 41 49 77 35 5 0 34 82
67 33 29 18 70 23 92 100 62 1 0 56 93 85 73 32 41 80 76 78
37 97 32 2 0 62 49 45 93 62 56 15 79 19 50 38 64 42 4 0
70 19 66 91 42 34 54 17 50 94 36 67 72 42 5 0 86 85 71 31
25 70 65 67 72 83 98 27 80 44 41 5 0 81 30 61 38 22 26 77
91 91 99 35 57 21 58 99 36 4 0 33 93 70 84 66 15 72 57 71
73 78 84 99 53 94 71 30 4 0 68 49 81 92 21 58 67 60 45 36
80 53 82 81 47 64 40 80 1 0 57 31 53 41 29 35 66 43 52 15
81 50 54 80 86 94 29 21 76 4 0 94 80 98 41 51 29 81 98 86
24 98 58 63 84 84 100 67 94 93 62 1 0 85 31 24 88 21 41 42
100 77 95 30 37 40 72 36 98 82 48 23 30 54 5 0 47 16 93 16
63 28 15 85 50 95 62 77 55 99 86 74 63 54 78 45 63 69 3 0
86 83 22 86 76 25 55 54 30 70 76 43 32 16 18 20 34 97 54 72
71 92 98 4 0 77 33 53 99 82 99 17 83 46 50 61 52 59 50 49
72 82 38 32 20 50 22 40 97 1 0 32 96 40 40 46 90 40 35 44
81 57 21 74 38 31 31 40 87 25 74 43 72 53 54 74 2 0 62 55
99 54 83 93 63 87 46 15 66 92 46 54 57 86 84 27 97 43 97 97
39 93 31 71 1 0 82 81 55 15 41 56 52 65 23 92 81 15 61 65
29 25 18 69 75 89 80 28 41 31 21 35 62 1 0 43 89 33 95 86
76 60 27 71 44 75 22 86 24 85 50 18 31 40 45 100 78 44 78 28
48 70 79 2 0 56 66 49 59 99 31 45 34 56 77 64 45 91 51 18
51 16 76 65 18 28 63 95 47 33 28 65 96 91 2 0 90 73 46 91
34 75 66 44 40 43 72 73 51 34 44 90 79 96 55 54 22 36 59 46
79 33 42 46 39 50 1 0 95 96 38 71 50 22 73 46 84 81 31 56
38 98 38 79 16 50 87 29 32 35 20 65 97 61 92 59 91 100 38 2
0 90 79 22 75 80 58 94 86 99 80 22 16 22 44 56 93 92 65 58
68 91 53 86 31 65 39 51 99 88 42 74 94 5 0 76 22 55 41 69
21 26 20 37 69 93 20 89 31 19 68 17 51 85 32 35 40 91 75 60
23 52 88 41 48 24 100 83 1 0 82 16 61 16 58 95 24 60 66 99
75 96 62 80 54 41 16 71 41 96 25 22 57 67 86 96 42 75 100 97
52 75 21 64 5 0 48 59 41 17 86 92 18 99 77 69 20 34 64 39
66 53 26 85 51 33 76 55 65 84 52 54 93 53 31 32 64 69 95 92
62 1 0 89 68 96 89 24 99 46 95 97 39 93 54 22 57 90 50 77
51 65 55 58 29 41 52 53 23 95 46 90 29 27 71 22 60 69 77 1
0 70 34 74 97 49 50 28 45 86 24 51 62 28 40 16 24 70 16 54
31 79 15 49 96 57 55 61 61 44 76 58 32 44 91 27 85 51 4 0
73 99 43 62 78 27 96 77 86 86 50 19 62 81 52 16 17 66 52 73
30 39 88 87 92 36 92 83 69 23 60 62 72 55 19 99 47 33 3 0
67 69 92 32 66 15 88 35 49 75 92 94 34 18 56 92 75 30 15 52
17 35 19 59 34 81 40 64 55 25 93 86 22 88 98 79 77 64 24 3
0 59 28 50 22 24 65 67 19 53 36 92 64 19 51 75 90 80 75 90
74 47 47 30 76 53 58 64 80 32 31 30 37 15 33 57 26 23 33 16
97 4 0 35 67 30 39 68 56 40 59 91 26 70 74 87 55 22 32 71
82 53 90 41 39 28 50 58 55 80 37 33 72 43 25 76 20 74 57 55
20 80 56 27 5 0 19 85 98 91 47 82 18 92 21 86 15 89 94 87
55 40 89 32 39 76 81 72 80 26 31 66 90 48 67 78 68 65 61 38
52 59 62 20 80 44 85 39 3 0 43 45 78 25 49 29 23 28 50 85
96 56 15 25 69 33 77 49 28 80 24 15 85 44 71 16 70 60 74 88
34 79 88 59 85 59 86 37 44 24 43 53 63 2 0 83 23 16 90 61
46 84 40 61 61 32 59 45 99 20 17 69 69 32 71 81 74 92 39 40
45 30 48 67 84 94 44 83 65 19 74 26 56 25 33 39 69 99 67 2
0 22 30 53 63 38 16 37 96 73 86 81 46 78 25 75 73 54 62 75
32 17 98 59 69 70 16 82 15 36 79 21 25 40 45 96 49 83 45 56
95 85 68 24 70 89 1 0 94 74 86 29 15 24 98 34 43 36 80 99
62 34 43 91 21 91 45 49 29 57 64 77 88 31 60 93 31 80 64 23
94 56 38 41 75 85 58 77 32 36 85 19 61 60 4 0 48 37 43 65
78 20 76 46 35 91 30 85 98 48 64 67 87 32 86 95 83 61 17 42
55 56 70 77 53 95 97 38 63 62 42 70 96 48 35 64 93 75 98 63
23 47 32 5 0 73 20 46 69 55 46 69 88 64 62 29 16 64 53 75
63 71 37 22 50 33 97 70 53 69 28 97 74 30 82 78 40 44 37 97
27 62 90 56 67 93 71 19 56 23 52 41 63 1 0 74 70 68 72 84
77 61 28 64 90 39 37 58 96 19 99 35 76 76 38 55 49 83 54 71
98 25 52 55 63 99 21 85 22 98 94 98 98 97 63 16 69 23 61 62
66 37 41 78 4 0 48 65 25 26 78 63 94 22 65 47 65 75 31 82
57 58 44 100 91 71 69 38 53 80 94 23 94 92 58 24 54 66 51 36
72 43 41 76 86 74 91 60 91 46 69 50 61 80 38 64 5 0 98 23
19 33 92 47 93 97 16 77 92 86 88 25 17 92 98 94 100 24 37 28
97 15 44 79 18 100 62 58 83 44 51 15 25 70 88 30 52 59 56 34
20 32 52 92 30 42 15 16 66 2 0 63 75 92 49 100 92 38 40 29
84 64 79 93 23 64 47 76 66 56 60 60 82 73 83 56 33 96 63 63
49 60 21 34 33 21 68 16 31 59 76 29 16 63 49 58 24 23 82 46
38 20 81 1 0 44 41 46 37 83 78 86 28 45 99 27 92 58 31 83
47 92 36 68 65 97 55 80 79 69 23 66 39 97 99 62 46 22 90 34
73 75 45 73 50 91 19 83 34 34 68 95 24 89 39 45 64 91 1 0
82 99 61 67 75 19 85 60 19 43 40 51 44 15 48 83 61 86 49 22
66 19 38 79 15 88 30 72 78 84 16 84 33 98 28 85 78 76 31 62
47 81 52 17 42 96 79 77 92 50 22 15 38 94 5 0 48 23 59 41
49 83 43 50 50 29 21 77 41 18 52 76 64 70 55 18 38 30 84 38
80 85 54 49 41 40 57 28 65 93 25 93 42 20 90 96 84 23 74 28
41 34 29 83 41 43 98 30 25 18 29 1 0 30 28 98 77 88 100 46
60 51 70 39 51 93 29 78 83 65 25 59 34 27 21 88 99 46 86 96
42 15 82 54 33 81 30 85 74 71 57 31 92 23 66 92 28 51 24 95
18 43 94 89 24 73 59 39 21 3 0 53 29 35 20 72 34 94 69 16
23 93 48 98 15 85 16 88 71 44 34 34 75 81 67 81 55 75 91 73
22 74 71 53 39 41 80 92 56 97 74 16 98 100 41 78 93 98 37 86
97 25 17 79 20 72 71 94 5 0 63 97 57 42 64 64 50 90 55 50
28 41 73 44 51 96 26 89 72 65 20 99 78 97 76 24 21 71 84 89
82 67 51 82 65 77 22 68 77 26 34 62 63 40 51 43 92 39 39 17
43 44 34 82 66 45 35 51 1 0 37 33 16 92 54 62 82 69 70 55
73 39 43 28 98 51 21 46 28 75 56 37 47 33 52 97 20 92 22 35
15 66 86 69 28 37 16 95 89 90 43 17 94 94 98 98 49 23 65 19
71 47 41 51 65 70 19 17 57 4 0 57 75 67 84 31 15 47 68 77
26 58 37 69 37 76 64 92 20 26 49 41 54 34 55 18 70 30 37 43
77 17 76 32 35 49 81 79 81 69 26 51 47 35 53 88 79 53 36 74
68 35 17 41 37 27 71 78 41 93 42 1 0 51 71 21 92 63 85 80
22 96 45 41 88 90 93 100 71 92 57 35 82 39 41 88 75 79 55 94
35 83 78 36 74 25 73 83 32 78 82 26 35 40 57 86 98 49 51 29
21 100 33 25 19 85 60 58 16 90 49 97 67 74 2 0 97 56 80 49
77 92 69 64 39 48 30 82 59 83 87 57 85 72 27 68 15 33 39 45
52 62 91 93 32 32 74 16 35 77 59 49 83 86 100 29 77 92 60 84
56 59 71 98 43 15 47 38 57 44 89 77 63 39 45 55 55 88 2 0
46 68 91 22 74 25 78 98 70 55 44 73 24 82 45 71 65 21 37 79
78 19 85 87 95 82 41 93 17 79 25 95 65 55 64 66 21 70 50 34
28 36 20 100 96 45 25 63 86 63 70 23 54 45 87 50 31 46 52 97
21 41 89 1 0 30 29 69 79 47 28 63 68 67 95 77 39 40 78 60
23 21 74 17 31 98 80 44 60 22 72 89 17 24 96 31 48 26 43 58
85 22 92 50 74 16 65 85 91 86 26 78 93 22 99 96 71 71 36 21
21 84 79 45 45 19 45 55 69 5 0 15 68 88 19 33 82 20 58 39
67 22 99 43 43 65 55 52 35 19 33 99 78 100 16 42 71 27 56 84
15 95 29 16 25 38 72 70 22 87 72 92 79 62 45 69 83 98 90 63
25 66 58 100 60 80 86 68 38 90 88 32 37 68 43 72 2 0 19 92
27 86 66 73 72 61 44 51 100 21 99 68 81 66 54 92 43 34 57 61
51 77 50 36 17 66 22 100 19 78 19 70 16 16 82 99 19 80 93 29
39 20 20 30 62 68 88 100 63 62 18 41 50 45 73 87 21 30 66 68
80 79 90 31 4 0 36 54 59 82 35 76 84 16 29 22 70 89 42 92
83 41 82 56 48 81 55 88 61 27 98 22 80 81 35 71 88 62 31 61
86 69 72 25 17 31 50 94 68 88 96 19 48 76 56 29 53 26 66 54
20 98 54 49 70 83 92 20 63 66 70 63 67 4 0 55 75 36 100 89
87 74 27 80 80 92 68 25 83 53 92 20 34 81 90 35 81 19 41 39
20 95 71 79 48 53 62 50 43 25 98 85 31 84 23 53 19 60 66 59
70 16 63 45 48 81 90 78 66 58 76 94 88 60 65 80 69 74 83 39
30 91 60 1 0 32 48 47 52 94 59 26 61 37 97 36 35 98 87 77
96 69 67 75 29 72 76 84 54 59 30 42 53 90 53 43 79 63 22 65
44 15 38 39 33 87 67 67 36 75 18 56 82 61 92 72 54 59 57 89
91 83 94 18 70 88 49 41 45 98 90 65 37 57 2 0 77 34 53 61
32 23 16 36 27 41 69 99 40 52 47 74 48 39 16 30 91 17 41 18
61 64 24 98 43 61 84 17 76 82 86 94 97 15 92 85 58 36 27 56
65 69 93 90 91 48 34 59 60 62 18 30 48 79 82 52 79 95 81 97
96 49 91 70 88 92 4 0 60 81 19 75 68 23 67 86 81 67 76 57
43 79 95 35 85 22 49 31 69 49 66 44 55 28 71 56 97 71 96 71
72 56 83 95 24 75 79 26 67 43 21 69 64 90 87 79 15 58 59 75
98 54 76 55 77 24 23 93 75 72 36 36 17 100 19 76 93 75 85 2
0 97 80 94 21 15 94 39 47 19 97 89 54 61 89 87 23 56 95 67
30 37 21 50 60 20 42 53 53 53 75 35 84 48 44 24 100 87 62 65
75 95 47 35 53 22 66 82 51 76 22 95 68 96 41 78 18 99 97 27
33 73 54 63 96 92 86 53 76 48 66 27 27 4 0 37 44 48 90 76
33 80 68 60 70 18 29 92 95 68 20 69 96 81 86 24 15 100 52 100
18 30 48 39 82 79 58 16 22 46 46 63 24 90 75 70 64 80 99 81
42 61 82 93 46 81 36 44 55 59 43 78 45 79 47 60 71 76 55 16
62 32 80 91 36 58 45 40 4 0 25 28 71 53 69 73 96 26 85 74
41 34 23 56 28 21 50 27 26 93 15 68 84 23 25 40 67 84 51 26
40 18 59 85 96 44 80 27 54 55 24 75 74 92 43 41 82 42 41 57
86 41 75 68 43 34 41 58 50 26 52 89 89 17 94 29 56 78 75 63
52 53 66 95 4 0 36 66 61 84 73 16 34 96 90 64 40 33 63 28
69 38 46 38 17 19 93 38 65 70 40 55 30 63 57 26 20 26 66 48
76 26 95 42 74 30 87 27 52 28 99 79 42 98 66 90 59 99 44 93
61 85 72 28 35 22 20 88 19 93 54 56 88 30 74 69 36 99 44 66
60 1 0 41 15 69 90 89 94 85 37 67 86 66 59 82 43 76 22 91
88 71 80 69 80 34 75 65 97 86 78 79 76 16 63 17 51 76 78 64
87 37 65 47 100 83 26 32 17 80 35 54 45 24 23 45 100 24 56 20
66 19 99 95 83 92 29 66 25 90 21 36 59 83 86 23 41 47 31 1
0 68 50 18 85 100 58 46 66 68 60 99 46 24 58 54 29 86 67 43
81 56 54 15 77 43 38 34 53 99 89 96 35 40 25 34 47 37 61 29
96 86 88 33 84 41 86 40 43 69 50 80 36 38 27 42 54 26 26 45
66 36 70 84 98 87 25 93 61 35 26 89 61 83 66 54 37 60 1 0
52 84 91 21 37 59 71 93 64 80 37 63 31 60 98 69 35 67 48 27
60 58 23 98 53 63 21 89 64 31 17 85 43 71 38 70 41 30 49 47
84 87 63 83 89 36 32 35 51 16 37 66 22 69 33 38 82 58 68 98
71 70 35 68 43 34 35 39 34 58 38 40 24 39 88 72 25 45 1 0
75 17 84 87 73 88 68 22 24 16 65 97 75 79 82 88 55 71 57 87
57 40 39 76 58 75 94 55 15 86 65 38 30 15 80 79 70 62 23 62
73 91 62 91 77 95 34 98 69 36 24 44 93 79 53 56 29 23 24 79
82 20 38 88 17 30 41 23 38 53 17 80 71 69 58 90 39 21 49 5
0 71 15 86 44 97 40 91 82 29 49 56 94 62 17 23 89 99 99 51
98 51 47 46 72 73 80 63 100 22 73 69 60 95 64 95 38 77 69 78
84 44 45 48 62 98 48 51 70 50 24 46 65 87 96 37 41 43 69 67
63 26 80 93 83 87 45 22 66 50 52 53 34 67 60 86 68 65 83 25
62 1 0 52 22 88 36 16 49 34 40 78 40 49 64 100 84 36 69 86
88 74 84 50 35 90 92 92 84 16 74 31 53 77 26 20 38 16 66 25
41 28 34 50 90 69 96 81 100 85 94 44 73 75 36 50 56 67 94 55
81 16 47 96 77 33 84 24 68 69 92 82 56 52 56 33 83 27 56 95
78 80 41 88 5 0 47 28 28 93 58 88 62 60 39 23 34 89 55 96
70 93 36 42 40 50 23 82 43 80 39 43 57 22 97 91 22 17 68 57
36 59 17 79 100 93 92 23 99 87 92 92 45 33 85 57 94 68 67 36
100 77 85 66 69 50 85 28 59 90 65 86 93 76 55 60 23 96 92 27
58 25 86 18 30 47 72 71 4 0 26 47 67 75 39 67 85 23 97 85
33 87 98 93 49 28 32 96 94 22 81 41 29 41 50 26 18 96 33 86
23 92 59 80 16 57 45 35 22 36 74 67 90 36 77 41 20 44 68 32
57 51 90 17 60 23 18 32 25 96 25 88 62 19 70 90 25 78 69 96
38 83 65 23 69 70 78 18 79 96 77 34 63 1 0 88 69 88 66 76
39 97 53 38 38 96 16 57 73 52 58 18 39 78 65 48 55 29 35 43
78 32 44 52 42 31 56 74 24 63 78 50 40 51 78 52 17 37 60 63
50 35 19 96 24 77 23 22 77 74 40 81 34 91 76 32 22 47 66 88
91 31 95 90 76 74 68 78 55 94 47 85 25 54 65 62 35 27 85 5
0 75 99 15 52 24 89 89 75 54 72 24 52 31 35 48 53 23 58 74
88 45 39 40 24 37 68 72 37 62 20 66 41 75 34 86 95 38 79 33
97 34 91 76 87 56 83 66 62 89 56 24 82 53 18 80 76 73 24 20
66 22 20 76 17 46 52 64 82 46 28 33 97 25 57 76 38 53 88 53
18 85 94 20 48 61 1 0 26 89 77 55 30 74 62 19 34 58 50 45
92 89 42 88 57 34 84 17 76 23 95 36 75 83 42 78 86 57 95 80
24 36 53 73 52 95 86 24 76 56 93 44 29 31 30 74 100 92 57 50
39 93 96 83 73 76 56 34 99 84 100 76 24 90 72 66 69 64 39 53
96 96 47 64 22 92 81 42 91 37 21 74 28 50 3 0 67 88 73 95
37 50 95 24 79 94 44 53 43 89 81 60 97 65 62 31 47 96 91 80
50 73 19 34 31 58 64 36 99 95 92 70 42 69 32 86 50 84 27 31
49 57 57 92 35 96 56 42 60 25 66 64 25 87 48 89 71 16 98 53
86 38 87 15 95 84 19 86 96 81 88 89 67 100 16 88 34 23 39 27
99 54 67 3 0 2255 7 67 49 62 15 71 51 54 60 30 52 79 93 28
20 31 75 95 65 73 37 34 58 90 63 20 87 84 89 55 49 16 86 66
30 26 83 98 85 45 60 97 55 20 96 44 44 40 70 51 64 15 84 93
79 90 98 83 97 72 94 99 16 48 78 39 87 22 57 62 60 23 51 90
37 35 25 95 21 77 24 57 57 57 31 59 93 2 0
EOF