NAME: graph-023
TYPE: TSP
COMMENT: Synthetic varied-weight explicit TSP with a nearest-neighbor greedy trap
DIMENSION: 80
EDGE_WEIGHT_TYPE: EXPLICIT
EDGE_WEIGHT_FORMAT: LOWER_DIAG_ROW
EDGE_WEIGHT_SECTION
0 1 0 12 5 0 15 32 3 0 27 91 22 4 0 88 73 35 22 3
0 26 50 39 71 41 3 0 61 70 66 28 26 61 5 0 94 56 40 23
63 15 30 5 0 70 46 89 85 91 38 53 93 2 0 30 34 50 51 22
33 18 47 75 5 0 89 64 75 93 74 68 17 31 72 24 3 0 72 77
80 41 93 78 41 98 42 83 78 4 0 78 66 58 70 73 20 97 60 85
30 80 52 5 0 80 87 45 97 68 55 19 82 44 21 71 74 23 5 0
63 62 73 42 78 54 43 58 71 61 22 55 56 48 5 0 39 16 42 96
53 77 20 49 15 100 42 45 100 94 31 2 0 91 79 78 16 86 73 30
48 64 100 48 54 47 88 46 58 1 0 78 18 36 86 24 35 93 72 68
86 59 39 49 43 64 45 26 3 0 35 82 41 56 94 32 57 44 55 49
72 31 40 64 40 56 24 99 2 0 72 80 32 33 46 32 72 51 99 80
80 30 75 33 74 30 71 72 42 3 0 15 92 37 32 100 29 78 25 92
48 27 23 54 100 16 32 43 57 68 60 1 0 25 25 17 31 88 100 69
76 86 25 92 60 100 30 51 35 99 86 69 82 56 5 0 85 79 99 60
66 47 71 57 63 66 57 76 24 27 25 33 76 87 84 98 35 47 4 0
73 22 100 89 29 67 45 36 92 38 38 40 67 42 88 89 84 99 79 96
34 44 92 1 0 59 39 37 50 33 36 45 25 53 74 87 79 47 18 30
27 46 64 26 57 25 28 85 77 1 0 69 52 93 81 56 81 32 24 27
55 15 24 95 53 67 97 52 24 95 54 38 28 39 82 56 1 0 78 87
69 78 84 41 22 54 48 73 30 15 36 85 18 82 92 59 86 44 67 25
86 15 24 80 3 0 81 53 31 83 95 36 86 69 18 28 63 28 15 17
88 45 82 95 48 63 77 86 92 61 44 82 25 2 0 50 91 35 42 72
67 28 52 73 65 53 75 18 50 17 15 48 82 74 88 44 49 34 48 72
33 72 29 3 0 41 99 42 16 95 42 94 71 69 29 46 41 56 89 64
59 73 40 51 68 65 56 22 91 62 51 81 68 42 3 0 78 58 97 33
92 92 15 45 83 75 43 60 59 62 16 71 48 33 32 95 85 93 71 65
25 77 84 50 77 50 5 0 16 46 65 69 99 15 77 81 60 72 39 23
37 56 64 95 34 35 73 45 41 49 80 67 65 37 81 72 92 81 62 1
0 42 62 20 19 17 45 85 56 66 61 37 27 69 34 76 97 37 23 77
70 91 82 46 47 43 68 19 40 62 78 16 63 3 0 86 79 29 85 77
52 33 15 85 69 92 16 67 86 74 49 70 74 58 26 58 69 88 24 63
49 34 92 85 78 37 21 89 4 0 46 77 51 50 30 65 36 92 42 38
61 44 38 72 88 18 86 15 34 90 20 86 32 95 19 90 16 97 18 41
91 69 49 15 4 0 82 36 21 94 61 76 41 22 67 39 83 31 33 89
81 45 86 20 48 68 59 31 38 69 41 32 53 78 20 71 26 85 41 97
54 5 0 71 70 41 18 92 49 52 99 48 21 94 70 94 58 29 80 40
62 19 29 48 71 25 24 46 86 41 98 59 80 29 89 69 95 33 47 5
0 69 18 80 59 49 25 32 84 70 70 75 68 58 79 73 32 90 60 30
94 80 71 19 84 52 18 80 84 40 66 31 87 51 79 33 47 94 5 0
19 43 40 92 22 29 59 15 46 24 72 55 34 70 60 18 15 30 92 56
49 32 96 44 67 35 42 69 30 92 44 33 71 35 39 76 19 93 1 0
81 58 62 74 37 29 64 92 72 85 38 68 28 19 19 79 62 98 93 66
88 25 51 59 75 88 94 32 83 68 24 85 49 45 83 46 53 93 50 4
0 66 16 98 40 95 46 87 70 16 73 71 29 67 30 83 98 84 15 67
16 66 31 21 76 39 18 94 86 80 20 26 35 53 88 40 23 91 82 45
76 2 0 29 63 45 42 84 53 41 75 66 61 99 83 73 39 93 55 42
86 24 18 32 85 21 61 52 93 26 85 44 34 77 40 58 80 16 84 53
73 99 25 35 3 0 66 64 63 64 54 18 92 83 85 71 51 93 87 28
89 78 15 36 85 48 78 59 47 49 92 55 29 46 41 20 35 17 27 98
23 82 33 36 91 82 40 90 1 0 48 70 49 83 75 49 19 30 81 62
93 99 21 74 69 47 81 95 87 72 25 32 80 63 97 92 60 78 71 96
20 65 86 42 61 76 68 44 65 27 41 88 54 5 0 67 19 31 62 55
59 70 86 39 19 64 76 39 40 74 55 80 27 72 73 29 62 61 17 39
98 42 66 56 92 49 57 25 45 63 20 70 45 40 80 59 82 81 45 3
0 19 25 100 21 44 45 87 38 73 93 96 58 82 86 83 19 36 34 40
23 86 56 40 93 87 38 33 27 50 34 53 85 39 21 54 28 83 79 88
65 15 73 95 100 33 5 0 68 28 39 29 70 19 61 83 69 64 91 20
39 38 98 79 47 74 61 55 78 17 94 96 89 39 52 37 74 23 24 67
98 20 19 39 95 70 91 78 68 29 95 66 65 62 1 0 57 92 74 63
57 56 92 97 64 46 81 70 33 34 31 22 33 48 48 56 65 26 97 57
49 32 81 23 32 55 67 63 32 49 18 27 83 97 75 86 93 88 40 87
48 69 78 4 0 42 93 41 41 41 34 91 23 49 88 61 40 19 90 36
83 72 98 75 89 85 18 85 84 72 24 31 67 86 38 92 15 94 44 98
86 95 85 91 73 90 90 94 58 32 63 62 63 4 0 92 30 60 65 41
86 40 84 43 73 54 33 29 69 92 53 94 19 66 16 82 67 78 69 28
32 59 24 28 71 50 45 59 81 38 34 49 45 56 45 75 44 77 92 39
65 85 84 74 4 0 100 96 61 77 32 40 58 84 44 26 20 80 17 59
86 79 88 43 34 79 80 72 18 52 65 47 98 80 49 66 87 69 71 94
36 28 93 84 67 93 45 40 73 97 36 65 17 18 85 76 3 0 41 97
70 86 74 44 98 54 56 73 91 54 86 39 97 80 41 37 100 70 100 38
71 91 43 37 39 40 35 52 81 95 28 94 19 39 83 88 44 49 41 35
77 90 79 15 27 88 54 66 38 3 0 48 27 68 54 28 54 75 76 74
60 39 21 77 58 91 33 91 91 61 21 66 34 83 47 44 75 33 72 90
23 71 88 44 32 74 90 73 43 36 20 92 41 61 97 65 81 62 38 38
23 76 17 3 0 78 53 41 33 86 69 41 54 96 59 85 84 42 68 20
38 43 63 99 63 72 53 69 26 62 72 84 65 61 68 97 43 32 65 27
70 80 54 96 36 74 83 88 35 53 43 77 100 81 64 71 73 52 4 0
83 54 43 69 49 96 55 62 18 29 35 39 83 26 83 59 60 68 81 16
83 40 37 99 91 26 84 73 17 17 85 84 79 52 78 26 81 85 49 19
62 25 42 61 93 49 46 38 75 52 46 87 64 37 2 0 33 33 80 64
30 46 77 34 65 64 83 58 29 39 64 27 21 31 86 30 19 50 24 83
82 88 99 57 35 98 40 24 76 71 18 90 25 34 98 40 73 31 77 18
71 75 67 46 81 22 68 86 34 51 87 2 0 37 36 27 58 77 40 98
42 59 65 95 69 57 45 31 88 25 94 82 41 100 85 28 60 38 61 25
38 74 17 78 76 53 30 54 18 67 88 34 53 50 15 96 25 84 19 99
97 50 47 19 48 78 98 33 83 4 0 41 50 75 73 47 68 75 36 37
98 39 60 30 18 22 41 23 31 98 18 94 100 25 78 46 97 89 95 70
49 56 78 30 51 30 34 50 69 69 21 39 29 93 34 91 58 60 44 30
24 46 22 33 90 97 23 73 2 0 88 48 83 84 54 82 69 85 47 99
65 96 68 27 97 34 20 33 79 22 21 38 24 34 100 67 61 86 47 94
40 69 36 43 91 62 84 65 36 57 28 48 45 19 80 20 65 90 20 95
81 98 83 48 85 16 47 69 1 0 19 100 23 67 97 81 29 70 43 46
49 21 88 88 47 54 83 17 35 92 58 20 70 55 30 92 76 94 93 57
63 91 82 40 85 19 98 56 95 28 35 42 47 58 39 96 31 70 53 59
40 95 64 30 79 62 96 70 83 1 0 48 99 31 77 17 28 37 16 95
95 54 54 17 88 58 71 81 90 47 92 97 92 36 41 62 55 63 80 80
47 75 41 57 53 81 62 19 49 45 62 50 82 81 37 74 50 70 98 75
89 35 26 28 75 27 89 59 38 57 83 2 0 100 62 94 44 38 66 18
41 80 77 75 83 93 85 36 35 42 24 19 76 15 23 83 55 15 88 86
26 98 61 87 38 70 25 65 21 65 57 82 83 54 26 47 32 69 24 27
33 45 53 92 82 32 39 64 95 69 71 89 75 96 2 0 96 75 44 27
66 91 54 65 31 93 44 46 45 37 79 70 97 83 18 22 50 59 45 46
65 51 62 39 29 65 24 39 44 32 28 62 98 68 73 85 69 44 56 40
19 59 35 95 82 63 100 67 25 85 49 29 36 38 79 85 67 16 1 0
84 82 89 46 42 31 52 28 38 44 45 83 96 36 62 76 70 20 55 79
61 81 61 23 30 89 80 39 42 69 81 100 82 31 64 50 43 52 63 28
49 17 40 29 16 80 99 80 47 59 83 95 40 17 54 21 35 95 89 53
51 60 93 5 0 53 48 69 37 19 27 26 60 21 55 33 74 80 65 16
23 98 30 38 54 85 60 33 62 75 21 17 27 46 44 53 49 81 86 49
67 93 73 92 15 37 38 23 99 86 28 59 34 77 88 30 87 84 32 26
64 22 62 67 52 59 69 38 87 4 0 61 79 15 15 96 15 46 55 23
50 86 91 34 32 82 82 100 97 16 100 34 42 58 71 47 25 24 26 40
62 23 62 50 64 93 37 97 78 79 96 95 16 70 83 75 52 46 93 22
74 56 57 69 29 54 68 78 94 94 44 61 68 99 41 95 5 0 50 32
52 96 92 61 88 46 50 35 15 97 95 90 20 91 71 95 31 91 30 47
70 74 55 73 44 86 53 58 70 47 79 36 58 73 26 34 92 22 24 54
33 83 93 49 17 30 22 98 77 27 76 26 48 77 27 42 24 47 52 95
45 88 80 81 5 0 97 34 87 77 28 90 64 27 37 53 94 33 61 21
42 36 53 34 77 22 50 99 95 46 66 28 99 23 75 88 75 16 71 70
61 46 64 79 95 99 72 51 97 58 27 38 45 26 47 21 54 49 32 70
19 24 69 70 76 33 67 22 48 43 58 16 62 2 0 62 31 62 71 30
50 50 30 60 73 99 32 79 83 81 50 36 24 98 52 47 45 80 85 22
99 95 27 23 73 85 85 54 76 61 61 73 65 84 71 48 41 74 77 76
15 77 41 51 52 95 19 51 29 73 71 95 47 46 77 79 78 22 35 42
48 57 46 1 0 94 23 95 22 60 75 19 25 94 43 57 85 53 80 73
54 77 97 71 95 66 34 15 77 72 77 53 30 29 17 59 88 34 56 44
97 92 25 62 87 55 26 65 47 42 56 53 45 99 19 86 32 15 73 23
67 100 90 93 92 78 93 48 37 57 89 44 48 73 4 0 24 95 51 68
22 100 76 40 56 32 34 45 42 65 88 81 59 17 81 59 25 64 16 70
79 42 39 79 40 65 15 42 53 96 47 82 92 71 31 77 57 28 66 34
92 76 57 33 47 19 74 24 79 75 36 15 38 15 21 22 68 79 19 79
99 27 82 24 50 53 1 0 85 86 33 34 36 99 94 24 96 25 83 88
93 26 52 17 26 29 36 47 84 76 95 98 54 65 67 30 16 26 84 56
91 92 100 20 91 21 28 70 87 17 77 17 22 83 89 88 33 41 84 32
85 78 54 27 70 32 43 87 77 98 15 26 37 70 18 80 61 40 100 1
0 71 52 30 17 27 37 72 83 21 99 60 15 48 25 63 18 69 68 23
45 91 55 72 50 65 51 95 91 78 53 22 76 96 77 89 32 89 51 71
44 82 25 40 81 100 86 25 58 29 19 77 58 58 64 81 56 21 36 52
73 44 37 45 67 23 28 24 27 36 76 74 86 5 0 72 43 86 44 27
37 96 57 72 17 85 73 55 54 100 27 54 21 19 99 82 19 72 51 17
65 79 65 17 68 95 90 44 23 78 63 81 44 73 46 83 58 50 34 43
93 55 82 53 15 66 33 41 89 29 100 18 38 74 73 25 80 82 91 25
59 28 99 56 58 42 73 98 3 0 78 89 97 52 95 65 16 91 58 91
23 97 37 69 63 80 60 55 65 33 51 88 85 100 83 56 30 98 78 62
27 76 21 95 21 55 48 97 35 72 40 66 24 91 88 58 94 38 32 49
96 44 32 93 70 36 97 46 77 15 94 27 24 83 36 83 18 98 90 64
85 65 43 91 1 0 62 32 75 55 27 39 91 26 90 23 87 27 50 70
82 98 78 79 50 78 49 28 69 46 52 34 87 96 80 49 24 61 100 52
52 75 62 38 91 53 95 57 97 40 41 16 37 48 15 36 85 26 94 48
29 24 26 71 42 24 79 52 16 39 98 93 92 35 46 51 83 22 82 100
17 1 0 40 53 97 98 49 49 70 31 71 71 74 60 33 24 21 72 89
35 30 81 57 34 77 65 68 25 79 20 28 73 78 75 96 65 82 71 59
44 79 29 95 65 54 58 45 68 53 56 52 95 21 87 75 15 89 100 65
97 89 85 96 81 62 48 15 99 80 76 21 15 52 100 69 59 75 100 3
0 47 18 68 31 46 92 98 68 67 64 67 22 59 48 60 89 21 35 57
84 86 86 32 73 28 21 61 36 58 63 81 26 65 85 70 49 86 66 21
73 64 87 30 79 56 75 85 49 23 98 65 31 50 70 20 75 91 70 75
47 90 58 79 85 80 81 79 30 41 33 30 39 70 86 100 37 89 2 0
2038 7 83 75 31 20 54 42 96 90 42 62 94 85 66 89 90 65 49 48
100 53 69 63 73 92 44 70 96 45 42 38 48 36 28 55 82 44 73 74
49 21 20 47 19 20 71 78 91 90 67 57 34 74 55 86 67 52 71 47
47 100 71 21 88 65 36 43 99 18 91 99 24 97 37 97 84 94 4 0
EOF