NAME: trap12
TYPE: TSP
COMMENT: Synthetic explicit-edge TSP designed as a nearest-neighbor greedy trap
DIMENSION: 12
EDGE_WEIGHT_TYPE: EXPLICIT
EDGE_WEIGHT_FORMAT: FULL_MATRIX
EDGE_WEIGHT_SECTION
0 1 5 50 50 50 50 50 50 50 50 180
1 0 1 50 50 50 50 50 50 50 50 5
5 1 0 1 50 50 50 50 50 50 50 50
50 50 1 0 1 50 50 50 50 50 50 50
50 50 50 1 0 1 50 50 50 50 50 50
50 50 50 50 1 0 1 50 50 50 50 50
50 50 50 50 50 1 0 1 50 50 50 50
50 50 50 50 50 50 1 0 1 50 50 50
50 50 50 50 50 50 50 1 0 1 50 50
50 50 50 50 50 50 50 50 1 0 1 50
50 50 50 50 50 50 50 50 50 1 0 5
180 5 50 50 50 50 50 50 50 50 5 0
EOF